Name: Inosine
Precursor_mz: 291.0694351
Cas: 58-63-9
Adduct: [M+Na]+
Mz: 291.0699902
Comment: Major
Smiles: O=c1[nH]cnc2c1ncn2[C@@H]1O[C@H](CO)[C@@H](O)[C@H]1O
Formula: C10H12N4O5
Mix: Alkaloids-pos-mix1
Rt: [0.547]
Rt_apex: 0.560556335
Rt_start: 0.513533333
Rt_end: 0.711283333
Ms1_intensity: 18878
N_scnas: 50
Ms1_scan_range: [136, 143, 187]
Reci_snr: 0.004768831
Ms2_scan_idx: 277
Pmz_offset: 0.000659236
Entropy: 1.0
Num Peaks: 2
159.02952575683594 1058.0
291.0574951171875 62.0

Name: Uracil
Precursor_mz: 113.0334897
Cas: 66-22-8
Adduct: [M+H]+
Mz: 113.0345538
Comment: Major
Smiles: O=c1cc[nH]c(=O)[nH]1
Formula: C4H4N2O2
Mix: Alkaloids-pos-mix1
Rt: [0.356]
Rt_apex: 0.356149554
Rt_start: 0.328383333
Rt_end: 0.497366667
Ms1_intensity: 38906
N_scnas: 30
Ms1_scan_range: [103, 107, 134]
Reci_snr: 0.003642572
Ms2_scan_idx: 198
Pmz_offset: 0.0
Entropy: 0.9754775762557983
Num Peaks: 11
40.018550872802734 937.0
42.03631591796875 154.0
43.01731491088867 154.0
44.012420654296875 234.0
61.0071907043457 26.0
68.01177215576172 123.0
70.0274429321289 388.0
80.99755096435547 26.0
96.00746154785156 393.0
112.68840789794922 26.0
113.0342788696289 168.0

Name: Cytidine
Precursor_mz: 244.0926227
Cas: 65-46-3
Adduct: [M+H]+
Mz: 244.092797
Comment: Major
Smiles: Nc1ccn([C@@H]2O[C@H](CO)[C@@H](O)[C@H]2O)c(=O)n1
Formula: C9H13N3O5
Mix: Alkaloids-pos-mix1
Rt: [0.328]
Rt_apex: 0.327497283
Rt_start: 0.294233333
Rt_end: 0.513533333
Ms1_intensity: 209224
N_scnas: 37
Ms1_scan_range: [98, 103, 136]
Reci_snr: 0.000336963
Ms2_scan_idx: 152
Pmz_offset: 0.000176733
Entropy: 0.9706143140792847
Num Peaks: 22
40.018550872802734 382.0
41.04145431518555 92.0
42.03631591796875 663.0
43.01731491088867 321.0
45.03585433959961 154.0
52.01791000366211 432.0
55.02043914794922 277.0
57.0339469909668 473.0
59.053443908691406 62.0
61.02911376953125 93.0
67.03047943115234 373.0
68.01524353027344 741.0
69.045654296875 2733.0
71.01615142822266 266.0
73.02996063232422 154.0
85.02986145019531 255.0
94.04175567626953 6062.0
95.02412414550781 24106.0
97.03180694580078 93.0
112.05322265625 141987.0
114.03909301757812 62.0
115.04835510253906 62.0

Name: Hypoxanthine
Precursor_mz: 137.0461772
Cas: 68-94-0
Adduct: [M+H]+
Mz: 137.0457872
Comment: Major
Smiles: O=c1nc[nH]c2nc[nH]c12
Formula: C5H4N4O
Mix: Alkaloids-pos-mix1
Rt: [0.36, 0.549, 0.454]
Rt_apex: 0.360444479
Rt_start: 0.328383333
Rt_end: 0.399033333
Ms1_intensity: 222341
N_scnas: 10
Ms1_scan_range: [103, 108, 114]
Reci_snr: 0.056759144
Ms2_scan_idx: 199
Pmz_offset: 0.001447695
Entropy: 0.9880759716033936
Num Peaks: 16
40.019439697265625 373.0
53.012454986572266 93.0
55.03084945678711 2419.0
65.01346588134766 745.0
67.02933502197266 1009.0
77.0114517211914 93.0
82.03901672363281 1252.0
83.02191925048828 154.0
92.0250244140625 905.0
93.01171112060547 123.0
94.04039764404297 939.0
110.03473663330078 2025.0
119.0318603515625 2376.0
120.0198745727539 332.0
137.0447998046875 2154.0
138.0240020751953 93.0

Name: Hypoxanthine
Precursor_mz: 159.0264477
Cas: 68-94-0
Adduct: [M+Na]+
Mz: 159.0277315
Comment: Major
Smiles: O=c1nc[nH]c2nc[nH]c12
Formula: C5H4N4O
Mix: Alkaloids-pos-mix1
Rt: [0.36, 0.549, 0.454]
Rt_apex: 0.360642897
Rt_start: 0.335216667
Rt_end: 0.417716667
Ms1_intensity: 22945
N_scnas: 13
Ms1_scan_range: [104, 108, 118]
Reci_snr: 0.100502076
Ms2_scan_idx: 190
Pmz_offset: 2.84e-14
Entropy: 0.9481195211410522
Num Peaks: 10
43.01823425292969 31.0
48.992496490478516 154.0
62.01753616333008 62.0
63.006099700927734 265.0
63.99686813354492 663.0
64.99762725830078 31.0
65.9947509765625 596.0
79.02062225341797 521.0
80.02925109863281 31.0
81.01649475097656 659.0

Name: Allantoin
Precursor_mz: 159.0500563
Cas: 97-59-6
Adduct: [M+H]+
Mz: 159.0512665
Comment: Major
Smiles: NC(=O)NC1NC(=O)NC1=O
Formula: C4H6N4O3
Mix: Alkaloids-pos-mix1
Rt: [0.293]
Rt_apex: 0.292592765
Rt_start: 0.266883333
Rt_end: 0.32155
Ms1_intensity: 14920
N_scnas: 7
Ms1_scan_range: [94, 98, 102]
Reci_snr: 0.190341804
Ms2_scan_idx: 147
Pmz_offset: 0.000603395
Entropy: 0.9328339099884033
Num Peaks: 10
41.03606033325195 31.0
43.01731491088867 31.0
44.01335144042969 923.0
45.043392181396484 123.0
51.024757385253906 62.0
55.035011291503906 93.0
61.03898239135742 536.0
71.02442932128906 31.0
73.03955841064453 332.0
99.0171890258789 260.0

Name: Tryptamine
Precursor_mz: 161.1072752
Cas: 61-54-1
Adduct: [M+H]+
Mz: 161.1073248
Comment: Major
Smiles: NCCc1c[nH]c2ccccc12
Formula: C10H12N2
Mix: Alkaloids-pos-mix1
Rt: [1.696]
Rt_apex: 1.694675474
Rt_start: 1.660133333
Rt_end: 1.812783333
Ms1_intensity: 58097
N_scnas: 32
Ms1_scan_range: [479, 487, 512]
Reci_snr: 0.002025664
Ms2_scan_idx: 750
Pmz_offset: 0.001936236
Entropy: 0.9958412647247314
Num Peaks: 32
41.03969192504883 92.0
51.023799896240234 1001.0
63.02286148071289 386.0
65.03842163085938 2136.0
66.03357696533203 214.0
67.04432678222656 154.0
75.02579498291016 280.0
77.03861236572266 3700.0
78.04695892333984 154.0
88.03086853027344 93.0
89.03833770751953 6970.0
90.04620361328125 3669.0
91.05438995361328 14652.0
101.03968048095703 791.0
102.04508972167969 864.0
103.05547332763672 1386.0
104.04650115966797 290.0
105.07391357421875 93.0
115.05447387695312 29365.0
116.05913543701172 2263.0
118.0617446899414 497.0
126.04803466796875 1089.0
127.05362701416016 8433.0
129.05606079101562 579.0
130.06715393066406 154.0
132.08021545410156 201.0
140.0494384765625 278.0
141.05429077148438 311.0
142.0644073486328 3498.0
143.0747833251953 19658.0
144.0819854736328 40678.0
155.0587921142578 944.0

Name: Xanthine
Precursor_mz: 153.0402519
Cas: 69-89-6
Adduct: [M+H]+
Mz: 153.0407018
Comment: Major
Smiles: O=c1[nH]c(=O)c2[nH]cnc2[nH]1
Formula: C5H4N4O2
Mix: Alkaloids-pos-mix1
Rt: [0.485, 0.363]
Rt_apex: 0.362003703
Rt_start: 0.328383333
Rt_end: 0.424383333
Ms1_intensity: 56819
N_scnas: 15
Ms1_scan_range: [103, 108, 119]
Reci_snr: 0.135607339
Ms2_scan_idx: 178
Pmz_offset: 0.001193281
Entropy: 1.0000001192092896
Num Peaks: 13
44.99160385131836 123.0
46.99576187133789 154.0
53.01449966430664 222.0
55.029808044433594 1183.0
79.02062225341797 93.0
81.00891876220703 459.0
82.04156494140625 368.0
83.0257568359375 154.0
93.00629425048828 123.0
108.0185546875 93.0
110.03473663330078 3133.0
136.01670837402344 1576.0
153.04000854492188 253.0

Name: 8-Hydroxy-2'-deoxyguanosine
Precursor_mz: 284.0986024
Cas: 88847-89-6
Adduct: [M+H]+
Mz: 284.098945
Comment: Major
Smiles: Nc1nc2c([nH]c(=O)n2[C@H]2C[C@H](O)[C@@H](CO)O2)c(=O)[nH]1
Formula: C10H13N5O5
Mix: Alkaloids-pos-mix1
Rt: [1.091]
Rt_apex: 1.089673164
Rt_start: 1.018116667
Rt_end: 1.2164
Ms1_intensity: 100259
N_scnas: 53
Ms1_scan_range: [294, 309, 348]
Reci_snr: 0.000971926
Ms2_scan_idx: 512
Pmz_offset: 0.000102989
Entropy: 1.0
Num Peaks: 28
41.037864685058594 186.0
43.054141998291016 391.0
45.03397750854492 330.0
55.03085708618164 672.0
57.03395462036133 62.0
68.0245132446289 110.0
69.0328369140625 605.0
70.04036712646484 334.0
71.05046081542969 159.0
72.0534896850586 46.0
73.02997589111328 319.0
81.03418731689453 209.0
83.02320861816406 96.0
95.0337142944336 159.0
96.01985168457031 106.0
97.0511703491211 102.0
98.03380584716797 798.0
99.04373168945312 730.0
112.06214904785156 5995.0
113.04622650146484 259.0
117.0544204711914 516.0
123.0286865234375 3504.0
125.04792022705078 278.0
126.02903747558594 594.0
140.05763244628906 14014.0
150.04115295410156 418.0
151.02598571777344 3126.0
168.05174255371094 28804.0

Name: 8-Hydroxy-2'-deoxyguanosine
Precursor_mz: 306.0802352
Cas: 88847-89-6
Adduct: [M+Na]+
Mz: 306.0808892
Comment: Major
Smiles: Nc1nc2c([nH]c(=O)n2[C@H]2C[C@H](O)[C@@H](CO)O2)c(=O)[nH]1
Formula: C10H13N5O5
Mix: Alkaloids-pos-mix1
Rt: [1.091]
Rt_apex: 1.090390216
Rt_start: 1.020766667
Rt_end: 1.237316667
Ms1_intensity: 17677
N_scnas: 60
Ms1_scan_range: [295, 309, 356]
Reci_snr: 0.003264654
Ms2_scan_idx: 494
Pmz_offset: 0.000501798
Entropy: 1.0
Num Peaks: 3
43.05502700805664 31.0
190.0348358154297 194.0
306.0773620605469 154.0

Name: Adenosine
Precursor_mz: 268.1051161
Cas: 58-61-7
Adduct: [M+H]+
Mz: 268.1040304
Comment: Major
Smiles: Nc1ncnc2c1ncn2[C@@H]1O[C@H](CO)[C@@H](O)[C@H]1O
Formula: C10H13N5O4
Mix: Alkaloids-pos-mix1
Rt: [0.522]
Rt_apex: 0.523399751
Rt_start: 0.474266667
Rt_end: 0.6818
Ms1_intensity: 745325
N_scnas: 45
Ms1_scan_range: [130, 137, 176]
Reci_snr: 7.43e-05
Ms2_scan_idx: 271
Pmz_offset: 0.002301727
Entropy: 0.9477357864379883
Num Peaks: 27
40.01765823364258 123.0
41.038753509521484 250.0
43.017311096191406 663.0
45.03396987915039 533.0
55.01626968383789 750.0
57.035003662109375 1379.0
59.050201416015625 92.0
61.028011322021484 154.0
65.01007080078125 154.0
67.03047943115234 433.0
69.03282165527344 483.0
71.0125961303711 606.0
73.02755737304688 329.0
77.01390838623047 123.0
82.0377426147461 154.0
85.028564453125 816.0
92.02366638183594 3119.0
94.041748046875 5577.0
97.02764892578125 256.0
109.0521469116211 1314.0
115.03479766845703 188.0
119.03643798828125 35883.0
136.06253051757812 433758.0
137.0464324951172 647.0
139.06292724609375 93.0
148.06234741210938 93.0
268.107177734375 857.0

Name: Norepinephrine
Precursor_mz: 170.0808177
Cas: 51-41-2
Adduct: [M+H]+
Mz: 170.0811697
Comment: Major
Smiles: NC[C@H](O)c1ccc(O)c(O)c1
Formula: C8H11NO3
Mix: Alkaloids-pos-mix1
Rt: [0.291, 3.559]
Rt_apex: 0.289757269
Rt_start: 0.26005
Rt_end: 0.328383333
Ms1_intensity: 1512
N_scnas: 9
Ms1_scan_range: [93, 97, 103]
Reci_snr: 0.139595069
Ms2_scan_idx: 130
Pmz_offset: 0.0
Entropy: 1.0000001192092896
Num Peaks: 13
51.024757385253906 245.0
67.0373764038086 93.0
77.0385513305664 1266.0
79.05430603027344 693.0
81.0341796875 191.0
89.03561401367188 174.0
106.06436920166016 345.0
107.05084991455078 1209.0
109.0272445678711 123.0
123.04267883300781 154.0
134.0631103515625 154.0
135.03814697265625 174.0
152.06593322753906 93.0

Name: Thymidine
Precursor_mz: 243.096772
Cas: 50-89-5
Adduct: [M+H]+
Mz: 243.097548
Comment: Major
Smiles: Cc1cn([C@H]2C[C@H](O)[C@@H](CO)O2)c(=O)[nH]c1=O
Formula: C10H14N2O5
Mix: Alkaloids-pos-mix2
Rt: [1.211]
Rt_apex: 1.210981464
Rt_start: 1.16875
Rt_end: 1.27695
Ms1_intensity: 55143
N_scnas: 18
Ms1_scan_range: [347, 354, 366]
Reci_snr: 0.002969751
Ms2_scan_idx: 542
Pmz_offset: 1.72e-06
Entropy: 0.9958329796791077
Num Peaks: 21
41.0379638671875 874.0
43.05424880981445 902.0
45.03409194946289 1711.0
47.0151252746582 31.0
53.03916549682617 284.0
54.035133361816406 996.0
56.05170822143555 783.0
57.036216735839844 212.0
69.03301239013672 1631.0
71.0494613647461 362.0
73.02896118164062 619.0
81.03439331054688 545.0
82.03034210205078 999.0
84.04691314697266 1890.0
99.04537963867188 701.0
109.04072570800781 2369.0
110.02472686767578 9297.0
113.99444580078125 31.0
117.05623626708984 487.0
127.05227661132812 23236.0
128.0332794189453 31.0

Name: Thymidine
Precursor_mz: 265.079232
Cas: 50-89-5
Adduct: [M+Na]+
Mz: 265.0794923
Comment: Major
Smiles: Cc1cn([C@H]2C[C@H](O)[C@@H](CO)O2)c(=O)[nH]c1=O
Formula: C10H14N2O5
Mix: Alkaloids-pos-mix2
Rt: [1.211]
Rt_apex: 1.211507622
Rt_start: 1.16875
Rt_end: 1.314466667
Ms1_intensity: 116174
N_scnas: 26
Ms1_scan_range: [347, 354, 374]
Reci_snr: 0.0011373
Ms2_scan_idx: 538
Pmz_offset: 0.00012736
Entropy: 1.0
Num Peaks: 3
149.03079223632812 123.0
208.03895568847656 31.0
265.0903015136719 31.0

Name: SAH
Precursor_mz: 385.1278894
Cas: 979-92-0
Adduct: [M+H]+
Mz: 385.1288654
Comment: Major
Smiles: Nc1ncnc2c1ncn2[C@@H]1O[C@H](CSCC[C@H](N)C(=O)O)[C@@H](O)[C@H]1O
Formula: C14H20N6O5S
Mix: Alkaloids-pos-mix2
Rt: [0.351, 0.489]
Rt_apex: 0.350832793
Rt_start: 0.324033333
Rt_end: 0.444533333
Ms1_intensity: 283833
N_scnas: 21
Ms1_scan_range: [101, 105, 123]
Reci_snr: 0.003277935
Ms2_scan_idx: 171
Pmz_offset: 0.002240297
Entropy: 0.9999998807907104
Num Peaks: 12
61.011661529541016 123.0
88.02039337158203 12729.0
92.01573944091797 93.0
97.02918243408203 305.0
99.04247283935547 123.0
102.04090118408203 92.0
119.03509521484375 741.0
134.02593994140625 11209.0
136.062744140625 17954.0
160.0382080078125 93.0
250.0694580078125 380.0
385.13287353515625 92.0

Name: SAH
Precursor_mz: 385.1278894
Cas: 979-92-0
Adduct: [M+H]+
Mz: 385.1288654
Comment: isomer
Smiles: Nc1ncnc2c1ncn2[C@@H]1O[C@H](CSCC[C@H](N)C(=O)O)[C@@H](O)[C@H]1O
Formula: C14H20N6O5S
Mix: Alkaloids-pos-mix2
Rt: [0.351, 0.489]
Rt_apex: 0.488760487
Rt_start: 0.444533333
Rt_end: 0.588616667
Ms1_intensity: 101825
N_scnas: 28
Ms1_scan_range: [123, 134, 152]
Reci_snr: 0.005245823
Ms2_scan_idx: 246
Pmz_offset: 0.002240297
Entropy: 1.0000001192092896
Num Peaks: 7
88.02171325683594 10435.0
97.02503967285156 361.0
99.04386901855469 123.0
119.03356170654297 558.0
134.02593994140625 9541.0
136.062744140625 15299.0
250.07168579101562 361.0

Name: SAH
Precursor_mz: 407.1090701
Cas: 979-92-0
Adduct: [M+Na]+
Mz: 407.1108096
Comment: Major
Smiles: Nc1ncnc2c1ncn2[C@@H]1O[C@H](CSCC[C@H](N)C(=O)O)[C@@H](O)[C@H]1O
Formula: C14H20N6O5S
Mix: Alkaloids-pos-mix2
Rt: [0.351, 0.489]
Rt_apex: 0.352941549
Rt_start: 0.324033333
Rt_end: 0.423
Ms1_intensity: 1348
N_scnas: 16
Ms1_scan_range: [101, 105, 118]
Reci_snr: 0.043427107
Ms2_scan_idx: 195
Pmz_offset: 0.000234499
Entropy: 1.0
Num Peaks: 4
158.02963256835938 31.0
272.062744140625 31.0
362.10406494140625 93.0
407.10284423828125 62.0

Name: Isoguanine
Precursor_mz: 152.0555483
Cas: 3373-53-3
Adduct: [M+H]+
Mz: 152.0566863
Comment: Major
Smiles: Nc1nc(=O)[nH]c2nc[nH]c12
Formula: C5H5N5O
Mix: Alkaloids-pos-mix2
Rt: [0.305]
Rt_apex: 0.303415431
Rt_start: 0.2762
Rt_end: 0.385533333
Ms1_intensity: 26371
N_scnas: 15
Ms1_scan_range: [94, 98, 110]
Reci_snr: 0.026318311
Ms2_scan_idx: 141
Pmz_offset: 0.000681507
Entropy: 0.7264795303344727
Num Peaks: 14
40.019493103027344 93.0
42.03546142578125 31.0
45.037803649902344 31.0
53.01763916015625 123.0
56.013824462890625 123.0
57.04039001464844 31.0
65.01696014404297 191.0
69.0084457397461 93.0
80.02560424804688 378.0
81.009033203125 305.0
107.0350341796875 945.0
109.05232238769531 331.0
110.02754211425781 93.0
152.06097412109375 591.0

Name: Catharanthine tartrate
Precursor_mz: 337.1895984
Cas: 4168-17-6
Adduct: [M+H]+
Mz: 337.1910545
Comment: Major
Smiles: CCC1=C[C@H]2CN3CCc4c([nH]c5ccccc45)[C@@](C(=O)OC)(C2)[C@@H]13
Formula: C21H24N2O2
Mix: Alkaloids-pos-mix2
Rt: [2.918]
Rt_apex: 2.913084608
Rt_start: 2.830533333
Rt_end: 2.930183333
Ms1_intensity: 1162247
N_scnas: 17
Ms1_scan_range: [644, 659, 662]
Reci_snr: 0.000854517
Ms2_scan_idx: 1421
Pmz_offset: 0.000794907
Entropy: 0.9044569730758667
Num Peaks: 106
41.037940979003906 114.0
42.033668518066406 2546.0
43.028446197509766 522.0
51.02486038208008 286.0
59.01259231567383 6366.0
77.0374755859375 11292.0
79.0544662475586 779.0
89.03579711914062 275.0
90.04631042480469 123.0
91.05449676513672 23003.0
93.07010650634766 113751.0
95.04757690429688 103.0
102.04521942138672 167.0
103.0541763305664 1711.0
105.0711669921875 3770.0
106.06459045410156 199.0
107.07720947265625 189.0
108.0771255493164 119.0
115.05461883544922 3187.0
116.04869842529297 458.0
117.06983184814453 5629.0
118.06798553466797 242.0
119.08570098876953 168.0
121.09869384765625 175.0
122.09678649902344 202.0
127.05220031738281 2984.0
128.049072265625 2967.0
129.0657958984375 397.0
130.0657196044922 1712.0
131.0855712890625 376.0
132.08360290527344 218.0
133.0643768310547 11084.0
136.11029052734375 165.0
137.0582275390625 182.0
142.0629119873047 746.0
143.0732879638672 8880.0
144.08216857910156 600532.0
146.09532165527344 460.0
149.05813598632812 110.0
154.06106567382812 291.0
155.06248474121094 640.0
156.08291625976562 852.0
157.0820770263672 131.0
158.09324645996094 161.0
159.08287048339844 172.0
165.0926971435547 18583.0
166.0677947998047 91.0
167.07298278808594 292.0
168.0811767578125 467.0
169.08694458007812 228.0
170.09938049316406 499.0
171.09095764160156 316.0
172.10198974609375 85.0
173.10678100585938 7997.0
178.08091735839844 167.0
180.08653259277344 447.0
181.087890625 125.0
182.09201049804688 105.0
183.06854248046875 258.0
191.07174682617188 169.0
192.0817413330078 154.0
193.08660888671875 208.0
194.0628204345703 347.0
196.07568359375 152.0
198.08905029296875 187.0
202.080810546875 132.0
204.0825958251953 2663.0
205.08619689941406 1690.0
206.0922393798828 740.0
207.10479736328125 279.0
208.07528686523438 148.0
214.08346557617188 168.0
215.09278869628906 146.0
217.0854949951172 602.0
218.09979248046875 3381.0
219.10400390625 3880.0
220.11676025390625 957.0
221.11097717285156 152.0
222.1262664794922 132.0
230.1002197265625 177.0
231.10818481445312 167.0
232.11192321777344 549.0
233.11785888671875 952.0
234.12811279296875 2227.0
235.12547302246094 138.0
238.0848388671875 153.0
243.09979248046875 109.0
246.09776306152344 215.0
247.0982208251953 258.0
248.14712524414062 3117.0
249.14952087402344 334.0
258.1312561035156 223.0
261.11138916015625 173.0
262.12371826171875 165.0
264.0971984863281 232.0
276.1426086425781 613.0
277.1719665527344 473.0
279.083984375 1044.0
280.1352233886719 159.0
291.086669921875 170.0
292.1003112792969 238.0
293.1012878417969 1548.0
307.0782775878906 580.0
308.1636962890625 762.0
336.1478271484375 87.0
337.1906433105469 20254.0

Name: Daurisoline
Precursor_mz: 633.2895264
Cas: 70553-76-3
Adduct: [M+Na]+
Mz: 633.2935078
Comment: Major
Smiles: COc1cc2c(cc1O)[C@@H](Cc1ccc(O)c(Oc3ccc(C[C@@H]4c5cc(OC)c(OC)cc5CCN4C)cc3)c1)N(C)CC2
Formula: C37H42N2O6
Mix: Alkaloids-pos-mix2
Rt: [2.291, 2.141]
Rt_apex: 2.142318574
Rt_start: 2.09925
Rt_end: 2.2539
Ms1_intensity: 6617
N_scnas: 22
Ms1_scan_range: [532, 538, 555]
Reci_snr: 0.021226576
Ms2_scan_idx: 993
Pmz_offset: 0.000900826
Entropy: 1.0
Num Peaks: 9
199.0559844970703 93.0
206.12440490722656 93.0
214.09571838378906 93.0
306.1002502441406 123.0
395.1388854980469 31.0
402.1293029785156 31.0
479.2032470703125 31.0
511.2235107421875 412.0
633.3068237304688 441.0

Name: Liensinine Perchlorate
Precursor_mz: 633.2895264
Cas: 2385-63-9
Adduct: [M+Na]+
Mz: 633.2935078
Comment: Major
Smiles: COc1cc2c(cc1OC)[C@@H](Cc1ccc(O)c(Oc3cc4c(cc3OC)CCN(C)[C@@H]4Cc3ccc(O)cc3)c1)N(C)CC2
Formula: C37H42N2O6
Mix: Alkaloids-pos-mix2
Rt: [2.291, 2.141]
Rt_apex: 2.142318574
Rt_start: 2.09925
Rt_end: 2.2539
Ms1_intensity: 6617
N_scnas: 22
Ms1_scan_range: [532, 538, 555]
Reci_snr: 0.021226576
Ms2_scan_idx: 993
Pmz_offset: 0.000900826
Entropy: 1.0
Num Peaks: 9
199.0559844970703 93.0
206.12440490722656 93.0
214.09571838378906 93.0
306.1002502441406 123.0
395.1388854980469 31.0
402.1293029785156 31.0
479.2032470703125 31.0
511.2235107421875 412.0
633.3068237304688 441.0

Name: Cotinine
Precursor_mz: 177.102011
Cas: 486-56-6
Adduct: [M+H]+
Mz: 177.1022395
Comment: Major
Smiles: CN1C(=O)CC[C@H]1c1cccnc1
Formula: C10H12N2O
Mix: Alkaloids-pos-mix2
Rt: [0.51]
Rt_apex: 0.50894417
Rt_start: 0.463116667
Rt_end: 0.75835
Ms1_intensity: 1782937
N_scnas: 81
Ms1_scan_range: [127, 137, 209]
Reci_snr: 0.000152766
Ms2_scan_idx: 274
Pmz_offset: 0.001216207
Entropy: 0.9999998807907104
Num Peaks: 25
41.03877639770508 1576.0
42.035423278808594 6494.0
51.02177429199219 503.0
53.04007339477539 6684.0
65.03726196289062 366.0
68.05115509033203 549.0
70.06505584716797 2765.0
77.03858947753906 176.0
78.03453063964844 1283.0
79.04061889648438 229.0
80.05188751220703 90568.0
90.04750061035156 154.0
91.05301666259766 972.0
92.05333709716797 406.0
93.0564193725586 230.0
94.06629943847656 178.0
98.06440734863281 17646.0
106.06297302246094 624.0
117.05901336669922 1085.0
118.06475067138672 1478.0
120.07836151123047 1270.0
146.06625366210938 1311.0
149.07159423828125 305.0
159.10031127929688 195.0
177.11004638671875 9557.0

Name: Berberine chloride
Precursor_mz: 336.1226296
Cas: 633-65-8
Adduct: [M]+
Mz: 336.1230345
Comment: Major
Smiles: COc1ccc2cc3[n+](cc2c1OC)CCc1cc2c(cc1-3)OCO2
Formula: C20H18NO4+
Mix: Alkaloids-pos-mix2
Rt: [2.94]
Rt_apex: 2.942198242
Rt_start: 2.8967
Rt_end: 5.564633333
Ms1_intensity: 7517553
N_scnas: 501
Ms1_scan_range: [657, 664, 1159]
Reci_snr: 0.000492067
Ms2_scan_idx: 1446
Pmz_offset: 0.000391565
Entropy: 0.9950442910194397
Num Peaks: 82
139.0519256591797 181.0
144.08245849609375 176.0
150.04518127441406 252.0
151.05589294433594 262.0
163.05645751953125 587.0
164.05429077148438 223.0
165.06777954101562 610.0
166.05908203125 174.0
176.0645294189453 597.0
177.06399536132812 722.0
178.0700225830078 628.0
189.0677947998047 569.0
190.0666961669922 890.0
191.07211303710938 3984.0
192.08212280273438 1230.0
195.06932067871094 187.0
202.06324768066406 465.0
203.07386779785156 788.0
204.08099365234375 4759.0
205.0825653076172 1497.0
206.09666442871094 699.0
207.07086181640625 850.0
214.06744384765625 184.0
215.07057189941406 267.0
216.08016967773438 1306.0
217.08798217773438 2510.0
218.09814453125 854.0
219.06912231445312 4610.0
220.0797119140625 7873.0
221.0884552001953 1141.0
222.0953369140625 1009.0
225.0812530517578 693.0
230.05809020996094 179.0
231.06382751464844 1317.0
232.0781707763672 2844.0
233.0840301513672 4281.0
234.09420776367188 10761.0
235.0721435546875 4032.0
236.11033630371094 970.0
244.0814666748047 452.0
245.0822296142578 1702.0
246.09603881835938 4264.0
247.06781005859375 2465.0
248.07025146484375 11872.0
249.0813446044922 13127.0
250.08786010742188 4099.0
259.0637512207031 381.0
260.0743713378906 5525.0
261.08013916015625 3536.0
262.09014892578125 28714.0
263.08160400390625 30143.0
264.102294921875 13137.0
265.1043701171875 358.0
273.09442138671875 201.0
274.0902099609375 12484.0
275.09942626953125 83539.0
276.1011657714844 7786.0
277.07672119140625 37085.0
278.08673095703125 612979.0
279.1361083984375 547.0
288.0711975097656 2154.0
289.0747985839844 8172.0
290.0849304199219 23778.0
291.0968017578125 35021.0
292.103271484375 890067.0
303.0543212890625 1920.0
304.1007995605469 312198.0
305.0755310058594 3176.0
306.083740234375 316807.0
307.0911865234375 348.0
308.12982177734375 186.0
317.1089782714844 717.0
318.0793151855469 279991.0
319.11376953125 4111.0
320.0997314453125 997877.0
321.10980224609375 388307.0
335.0970153808594 3745.0
336.1304626464844 633107.0
337.08050537109375 1606.0
337.2041931152344 1545.0
337.5057373046875 483.0
337.6166076660156 320.0

Name: Econazole
Precursor_mz: 381.0309544
Cas: 27220-47-9
Adduct: [M+H]+
Mz: 381.0322726
Comment: Major
Smiles: Clc1ccc(COC(Cn2ccnc2)c2ccc(Cl)cc2Cl)cc1
Formula: C18H15Cl3N2O
Mix: Alkaloids-pos-mix2
Rt: [4.166]
Rt_apex: 4.161691286
Rt_start: 4.078666667
Rt_end: 4.732866667
Ms1_intensity: 6225639
N_scnas: 116
Ms1_scan_range: [856, 871, 973]
Reci_snr: 6.79e-05
Ms2_scan_idx: 2063
Pmz_offset: 0.000445396
Entropy: 0.9325993657112122
Num Peaks: 49
42.035552978515625 548.0
63.024147033691406 1050.0
65.03746032714844 322.0
69.0458984375 44306.0
72.98585510253906 577.0
75.00047302246094 257.0
81.04583740234375 1547.0
82.0520248413086 1634.0
89.03857421875 99230.0
90.04644775390625 11250.0
96.9823989868164 191.0
99.00078582763672 33009.0
101.03996276855469 186.0
102.04537200927734 355.0
123.0010986328125 84.0
125.0169677734375 1299527.0
126.09407043457031 275.0
127.04606628417969 178.0
128.0540313720703 145.0
129.104248046875 98.0
136.01065063476562 332.0
137.01571655273438 1199.0
153.0145263671875 120.0
158.9769287109375 1762.0
162.01336669921875 139.0
168.06687927246094 105.0
170.97743225097656 980.0
171.98629760742188 772.0
172.99073791503906 518.0
176.06072998046875 154.0
177.0732421875 119.0
178.0755615234375 1276.0
186.97418212890625 173.0
193.0537567138672 27740.0
203.03778076171875 894.0
205.05233764648438 213.0
212.03749084472656 1333.0
213.0481414794922 919.0
239.0150146484375 784.0
247.00595092773438 1172.0
248.01487731933594 2187.0
255.00949096679688 767.0
282.9848327636719 2491.0
379.8642272949219 1471.0
381.0357360839844 487617.0
382.0499267578125 560.0
382.263916015625 536.0
382.5054016113281 226.0
382.61517333984375 146.0

Name: Cinchonine
Precursor_mz: 295.1806834
Cas: 118-10-5
Adduct: [M+H]+
Mz: 295.1804898
Comment: Major
Smiles: C=C[C@H]1C[N@@]2CC[C@H]1C[C@@H]2[C@@H](O)c1ccnc2ccccc12
Formula: C19H22N2O
Mix: Alkaloids-pos-mix3
Rt: [1.879]
Rt_apex: 1.880658583
Rt_start: 1.82085
Rt_end: 2.021683333
Ms1_intensity: 1125548
N_scnas: 34
Ms1_scan_range: [565, 578, 600]
Reci_snr: 0.000216652
Ms2_scan_idx: 747
Pmz_offset: 0.001697025
Entropy: 1.0000001192092896
Num Peaks: 120
41.03989791870117 1655.0
42.03474426269531 908.0
44.049930572509766 4059.0
53.03935241699219 2049.0
55.056175231933594 2112.0
56.0498046875 847.0
58.06479263305664 164.0
65.0410385131836 525.0
66.04762268066406 192.0
67.05503845214844 2474.0
68.04924011230469 602.0
69.05892944335938 307.0
70.0701675415039 345.0
77.0378189086914 2478.0
79.05731201171875 12474.0
80.05111694335938 2826.0
81.07135009765625 14593.0
82.06752014160156 3036.0
84.08197784423828 567.0
91.05491638183594 3464.0
93.06782531738281 1529.0
94.06415557861328 2246.0
95.07674407958984 1698.0
96.08236694335938 1670.0
101.0374526977539 528.0
103.05607604980469 515.0
105.06877899169922 1438.0
106.06507873535156 1130.0
107.08641815185547 640.0
108.0820083618164 3799.0
109.09392547607422 339.0
110.0973129272461 1899.0
115.05364990234375 3665.0
116.04924011230469 302.0
117.05671691894531 560.0
118.07159423828125 243.0
119.0709457397461 228.0
120.07911682128906 1134.0
121.09000396728516 202.0
122.09736633300781 1435.0
124.1136703491211 794.0
127.05280303955078 650.0
128.05126953125 4967.0
129.06161499023438 828.0
130.0663299560547 26795.0
132.084228515625 1265.0
134.0997772216797 3662.0
135.10594177246094 603.0
136.1142120361328 2649.0
138.1288299560547 532.0
140.0469512939453 270.0
142.0669403076172 9956.0
143.07229614257812 5877.0
144.08287048339844 3466.0
146.06210327148438 312.0
152.0531463623047 187.0
154.06704711914062 8199.0
155.0719757080078 1594.0
156.08367919921875 9292.0
157.08810424804688 260.0
158.06224060058594 1235.0
159.06594848632812 1867.0
165.07366943359375 252.0
166.068603515625 1973.0
167.0756072998047 8211.0
168.0838165283203 10137.0
169.0768280029297 1624.0
170.09837341308594 560.0
171.0899658203125 347.0
172.0789031982422 1898.0
179.07192993164062 282.0
180.0855255126953 5599.0
181.07933044433594 2063.0
182.0910186767578 1285.0
183.09413146972656 704.0
184.0771484375 2474.0
186.0931854248047 174.0
191.0688018798828 593.0
192.0788116455078 1137.0
193.09536743164062 1054.0
194.10093688964844 2466.0
195.08950805664062 727.0
196.11203002929688 1443.0
197.10964965820312 1247.0
204.08160400390625 1540.0
205.0912322998047 718.0
206.0972900390625 1649.0
207.09976196289062 840.0
208.1087188720703 1225.0
209.10794067382812 969.0
210.13600158691406 591.0
212.1138458251953 210.0
217.09278869628906 540.0
218.10089111328125 1379.0
219.10093688964844 631.0
220.1116180419922 1174.0
221.10791015625 2509.0
222.11692810058594 842.0
223.1303253173828 1345.0
224.15023803710938 370.0
230.09072875976562 278.0
231.1136016845703 265.0
232.115234375 856.0
233.10830688476562 388.0
234.1314239501953 2546.0
235.12451171875 3985.0
236.13909912109375 1315.0
238.15748596191406 227.0
246.1254119873047 541.0
247.1259307861328 377.0
248.1505889892578 980.0
249.14413452148438 246.0
250.1574249267578 252.0
252.1433868408203 433.0
265.1714782714844 189.0
266.1527099609375 314.0
275.149169921875 270.0
277.1756896972656 16934.0
294.28118896484375 198.0
295.1846008300781 83654.0

Name: Cinchonine
Precursor_mz: 295.180093
Cas: 118-10-5
Adduct: [M+H]+
Mz: 295.1804898
Comment: isomer
Smiles: C=C[C@H]1C[N@@]2CC[C@H]1C[C@@H]2[C@@H](O)c1ccnc2ccccc12
Formula: C19H22N2O
Mix: Alkaloids-pos-mix3
Rt: [1.879]
Rt_apex: 2.074465733
Rt_start: 2.021683333
Rt_end: 2.163333333
Ms1_intensity: 6591
N_scnas: 20
Ms1_scan_range: [600, 608, 621]
Reci_snr: 0.062024235
Ms2_scan_idx: 895
Pmz_offset: 0.001106603
Entropy: 0.9999999403953552
Num Peaks: 8
79.05350494384766 147.0
81.06875610351562 175.0
130.06784057617188 201.0
156.0835418701172 106.0
167.0700225830078 114.0
168.07823181152344 108.0
277.1708068847656 198.0
295.1771545410156 575.0

Name: Betaine chloride
Precursor_mz: 118.0857016
Cas: 590-46-5
Adduct: [M+H]+
Mz: 118.0862551
Comment: Major
Smiles: C[N+](C)(C)CC(=O)[O-]
Formula: C5H11NO2
Mix: Alkaloids-pos-mix3
Rt: [0.287]
Rt_apex: 0.287089931
Rt_start: 0.2503
Rt_end: 0.555616667
Ms1_intensity: 674587
N_scnas: 67
Ms1_scan_range: [91, 97, 159]
Reci_snr: 7.28e-05
Ms2_scan_idx: 131
Pmz_offset: 4.72e-05
Entropy: 0.9611445069313049
Num Peaks: 14
42.03470230102539 12999.0
43.04145812988281 3695.0
44.04988479614258 834.0
56.049747467041016 896.0
57.05862045288086 194.0
58.065799713134766 193819.0
59.07316207885742 14721.0
72.08126831054688 31.0
74.05809020996094 77.0
88.04181671142578 31.0
100.0748291015625 46.0
102.05550384521484 62.0
117.73320007324219 62.0
118.08824157714844 7513.0

Name: Physostigmine Salicylate
Precursor_mz: 276.1718193
Cas: 57-64-7
Adduct: [M+H]+
Mz: 276.1706534
Comment: Major
Smiles: CNC(=O)Oc1ccc2c(c1)[C@]1(C)CCN(C)[C@@H]1N2C
Formula: C15H21N3O2
Mix: Alkaloids-pos-mix3
Rt: [1.982]
Rt_apex: 1.984914593
Rt_start: 1.909683333
Rt_end: 2.40015
Ms1_intensity: 2555382
N_scnas: 98
Ms1_scan_range: [582, 594, 681]
Reci_snr: 3.15e-05
Ms2_scan_idx: 817
Pmz_offset: 0.002166474
Entropy: 0.9882985949516296
Num Peaks: 64
42.03382873535156 1335.0
43.04241943359375 187.0
44.05085754394531 68838.0
56.05084991455078 1201.0
58.065853118896484 2547.0
77.04026794433594 3372.0
78.04986572265625 263.0
79.05106353759766 447.0
89.03750610351562 410.0
90.04271697998047 199.0
91.05490112304688 6089.0
93.06916809082031 2513.0
94.06822967529297 508.0
95.07536315917969 408.0
103.05464172363281 4790.0
104.0470962524414 1121.0
105.07019805908203 1837.0
106.06651306152344 486.0
107.05010223388672 1517.0
115.05363464355469 2033.0
116.04771423339844 408.0
117.05821990966797 3254.0
118.06547546386719 10018.0
119.07245635986328 3700.0
120.0837173461914 282.0
121.06527709960938 9526.0
127.05594635009766 1118.0
128.06396484375 804.0
129.069580078125 570.0
130.06951904296875 1449.0
131.0524444580078 1966.0
132.07937622070312 1513.0
133.0601348876953 1472.0
134.09812927246094 31013.0
135.07981872558594 743.0
142.06858825683594 168.0
143.07730102539062 993.0
144.0794677734375 9827.0
145.08851623535156 3964.0
146.0603790283203 138405.0
147.0695343017578 666481.0
148.11288452148438 1698.0
154.0705108642578 318.0
155.075439453125 230.0
156.08189392089844 354.0
157.06346130371094 222.0
158.09397888183594 1092.0
159.10308837890625 781.0
160.07810974121094 64894.0
161.08462524414062 206996.0
162.0924835205078 1052968.0
163.04974365234375 577.0
164.13563537597656 202.0
170.09652709960938 635.0
172.0733642578125 9214.0
173.08360290527344 37359.0
174.0930938720703 580.0
175.0980987548828 651.0
176.10784912109375 267416.0
186.09507751464844 226.0
187.09378051757812 361.0
188.10862731933594 81510.0
219.11337280273438 77660.0
233.12969970703125 9391.0

Name: Physostigmine Salicylate
Precursor_mz: 298.1508269
Cas: 57-64-7
Adduct: [M+Na]+
Mz: 298.1525976
Comment: Major
Smiles: CNC(=O)Oc1ccc2c(c1)[C@]1(C)CCN(C)[C@@H]1N2C
Formula: C15H21N3O2
Mix: Alkaloids-pos-mix3
Rt: [1.982]
Rt_apex: 1.983152414
Rt_start: 1.941683333
Rt_end: 2.021683333
Ms1_intensity: 9858
N_scnas: 11
Ms1_scan_range: [588, 594, 600]
Reci_snr: 0.151389301
Ms2_scan_idx: 824
Pmz_offset: 0.000729435
Entropy: nan
Num Peaks: 3
87.03748321533203 31.0
146.05699157714844 31.0
298.1502685546875 93.0

Name: Docetaxel trihydrate
Precursor_mz: 808.3558907
Cas: 148408-66-6
Adduct: [M+H]+
Mz: 808.3538818
Comment: Major
Smiles: CC(=O)O[C@@]12CO[C@@H]1C[C@H](O)[C@@]1(C)C(=O)[C@H](O)C3=C(C)[C@@H](OC(=O)[C@H](O)[C@@H](NC(=O)OC(C)(C)C)c4ccccc4)C[C@@](O)([C@@H](OC(=O)c4ccccc4)[C@@H]12)C3(C)C
Formula: C43H53NO14
Mix: Alkaloids-pos-mix3
Rt: [4.658]
Rt_apex: 4.660798863
Rt_start: 4.6135
Rt_end: 4.895816667
Ms1_intensity: 419961
N_scnas: 46
Ms1_scan_range: [1092, 1100, 1139]
Reci_snr: 0.000245526
Ms2_scan_idx: 2185
Pmz_offset: 0.001304104
Entropy: 1.0
Num Peaks: 138
43.016685485839844 233.0
62.02350616455078 3231.0
77.03911590576172 682.0
79.05363464355469 183.0
81.06888580322266 202.0
91.05498504638672 10589.0
93.06925201416016 697.0
95.08366394042969 246.0
103.05331420898438 345.0
105.03290557861328 8690.0
106.06661224365234 399.0
107.08650207519531 683.0
109.06470489501953 553.0
118.0640640258789 302.0
119.04960632324219 3732.0
121.06539154052734 2569.0
123.08253479003906 741.0
129.0712890625 304.0
131.08470153808594 436.0
133.0651092529297 2095.0
135.0799560546875 922.0
136.07176208496094 534.0
137.0951385498047 778.0
141.0652618408203 184.0
143.08750915527344 793.0
145.0988006591797 840.0
147.0458526611328 1120.0
149.09837341308594 1455.0
151.075439453125 1814.0
155.08433532714844 379.0
157.10055541992188 648.0
159.08377075195312 1176.0
161.0972442626953 1719.0
163.0767822265625 489.0
165.0557861328125 4683.0
167.0684814453125 589.0
169.10250854492188 474.0
171.0809326171875 889.0
173.1003875732422 833.0
175.07412719726562 846.0
177.09454345703125 1022.0
179.07583618164062 487.0
180.0612030029297 486.0
181.10403442382812 669.0
182.08169555664062 23169.0
183.11895751953125 1006.0
185.09349060058594 560.0
187.07476806640625 532.0
189.08975219726562 392.0
191.07090759277344 350.0
193.09942626953125 798.0
195.1171112060547 1184.0
197.0960235595703 1036.0
199.11065673828125 1059.0
201.09771728515625 423.0
203.10064697265625 282.0
205.1014404296875 445.0
206.1075439453125 330.0
207.12013244628906 791.0
208.060302734375 238.0
209.12840270996094 937.0
211.11578369140625 1297.0
213.1289520263672 1494.0
215.10638427734375 482.0
217.1239776611328 234.0
219.11773681640625 268.0
220.12428283691406 519.0
221.13731384277344 966.0
222.10037231445312 271.0
223.12002563476562 1505.0
224.12310791015625 483.0
225.13265991210938 1227.0
226.0748291015625 20029.0
227.1077880859375 932.0
229.11915588378906 457.0
230.11007690429688 182.0
231.12232971191406 186.0
232.12184143066406 373.0
233.13636779785156 298.0
235.15052795410156 2066.0
236.1241912841797 254.0
237.130126953125 1654.0
238.1338653564453 618.0
239.14407348632812 3150.0
241.12730407714844 1048.0
243.14279174804688 386.0
245.1425018310547 822.0
247.148193359375 534.0
248.11984252929688 540.0
249.1266326904297 1071.0
251.14630126953125 1584.0
253.1607208251953 2763.0
255.13612365722656 1294.0
257.1529541015625 807.0
259.1370544433594 2522.0
263.14410400390625 6185.0
265.1534118652344 841.0
266.1254577636719 462.0
267.135986328125 2485.0
269.1190185546875 1023.0
271.16949462890625 893.0
273.12799072265625 455.0
276.1116027832031 212.0
279.1465759277344 1273.0
281.15716552734375 11308.0
282.1368713378906 434.0
283.13482666015625 805.0
285.1454772949219 679.0
287.12994384765625 1810.0
291.1410827636719 2580.0
294.1297912597656 202.0
297.1434326171875 1058.0
299.1667175292969 5003.0
301.1432800292969 291.0
309.1517028808594 11560.0
315.1590881347656 268.0
317.1852111816406 353.0
327.159423828125 13583.0
345.16827392578125 6132.0
347.160400390625 194.0
351.1592102050781 214.0
359.1936340332031 509.0
363.1780700683594 268.0
369.1743469238281 901.0
387.18157958984375 2038.0
405.1824645996094 696.0
413.17877197265625 185.0
431.1902770996094 577.0
449.19927978515625 1474.0
467.22174072265625 357.0
491.215087890625 1441.0
509.2203063964844 15726.0
527.2305297851562 10575.0
672.2728271484375 426.0
690.3082885742188 443.0
716.2645874023438 214.0
752.2954711914062 203.0
808.3665771484375 1013.0

Name: Docetaxel trihydrate
Precursor_mz: 830.3373934
Cas: 148408-66-6
Adduct: [M+Na]+
Mz: 830.3358261
Comment: Major
Smiles: CC(=O)O[C@@]12CO[C@@H]1C[C@H](O)[C@@]1(C)C(=O)[C@H](O)C3=C(C)[C@@H](OC(=O)[C@H](O)[C@@H](NC(=O)OC(C)(C)C)c4ccccc4)C[C@@](O)([C@@H](OC(=O)c4ccccc4)[C@@H]12)C3(C)C
Formula: C43H53NO14
Mix: Alkaloids-pos-mix3
Rt: [4.658]
Rt_apex: 4.653723294
Rt_start: 4.6135
Rt_end: 4.90565
Ms1_intensity: 392942
N_scnas: 48
Ms1_scan_range: [1092, 1099, 1141]
Reci_snr: 0.000489104
Ms2_scan_idx: 2186
Pmz_offset: 0.004308312
Entropy: 1.0
Num Peaks: 25
91.05364990234375 370.0
105.03433990478516 692.0
121.06230926513672 181.0
143.04722595214844 252.0
204.06573486328125 3388.0
239.146240234375 276.0
248.0535430908203 21244.0
253.1584930419922 394.0
259.1415710449219 214.0
263.14410400390625 317.0
281.1524658203125 303.0
299.159423828125 177.0
304.11669921875 30814.0
309.1541748046875 425.0
327.1568908691406 384.0
367.1629638671875 394.0
409.1609191894531 302.0
427.17254638671875 2339.0
471.1824645996094 232.0
489.19244384765625 723.0
505.2160339355469 312.0
531.1980590820312 462.0
549.2145385742188 68262.0
774.2813720703125 332.0
830.3463745117188 27263.0

Name: Docetaxel trihydrate
Precursor_mz: 825.3827132
Cas: 148408-66-6
Adduct: [M+NH4]+
Mz: 825.3804309
Comment: Major
Smiles: CC(=O)O[C@@]12CO[C@@H]1C[C@H](O)[C@@]1(C)C(=O)[C@H](O)C3=C(C)[C@@H](OC(=O)[C@H](O)[C@@H](NC(=O)OC(C)(C)C)c4ccccc4)C[C@@](O)([C@@H](OC(=O)c4ccccc4)[C@@H]12)C3(C)C
Formula: C43H53NO14
Mix: Alkaloids-pos-mix3
Rt: [4.658]
Rt_apex: 4.66245846
Rt_start: 4.6163
Rt_end: 4.759666667
Ms1_intensity: 7710
N_scnas: 21
Ms1_scan_range: [1093, 1100, 1115]
Reci_snr: 0.01010451
Ms2_scan_idx: 2193
Pmz_offset: 0.003373744
Entropy: 1.0
Num Peaks: 49
62.022315979003906 282.0
77.03900909423828 287.0
91.05084991455078 1008.0
105.03132629394531 1921.0
119.04944610595703 425.0
121.06369018554688 383.0
133.06332397460938 288.0
149.09646606445312 230.0
151.07522583007812 169.0
161.0988006591797 298.0
165.0537567138672 771.0
182.08334350585938 2892.0
183.1168212890625 207.0
199.1222686767578 175.0
211.14813232421875 320.0
213.13072204589844 216.0
215.1040496826172 202.0
221.1349334716797 320.0
223.11134338378906 298.0
225.1302490234375 223.0
226.07241821289062 3836.0
235.15235900878906 382.0
237.1298065185547 403.0
239.1459197998047 732.0
241.12698364257812 192.0
249.13072204589844 199.0
251.14151000976562 268.0
253.16038513183594 503.0
259.1322021484375 325.0
263.14599609375 971.0
265.1576232910156 182.0
267.14019775390625 223.0
269.1554870605469 193.0
279.1509094238281 212.0
281.15679931640625 1532.0
282.1341552734375 257.0
285.1521911621094 272.0
287.1295471191406 351.0
291.13348388671875 368.0
299.16387939453125 851.0
309.15374755859375 1588.0
327.1665954589844 2067.0
345.1678161621094 1131.0
387.1700134277344 344.0
449.1927185058594 284.0
491.2082214355469 199.0
509.2196350097656 2357.0
527.2298583984375 2150.0
690.31103515625 186.0

Name: Quinidine hydrochloride monohydrate
Precursor_mz: 325.1910262
Cas: 6151-40-2
Adduct: [M+H]+
Mz: 325.1910545
Comment: Major
Smiles: C=C[C@H]1C[N@@]2CC[C@H]1C[C@@H]2[C@@H](O)c1ccnc2ccc(OC)cc12
Formula: C20H24N2O2
Mix: Alkaloids-pos-mix3
Rt: [2.019]
Rt_apex: 2.017060366
Rt_start: 1.968683333
Rt_end: 2.86895
Ms1_intensity: 843639
N_scnas: 181
Ms1_scan_range: [592, 599, 774]
Reci_snr: 0.00039253
Ms2_scan_idx: 846
Pmz_offset: 0.000701362
Entropy: 0.9934309720993042
Num Peaks: 156
41.03901290893555 2475.0
42.03384780883789 954.0
44.04994583129883 2629.0
53.03936767578125 2016.0
55.05411148071289 1556.0
56.04772186279297 1139.0
58.06481170654297 261.0
65.0387954711914 690.0
66.04421997070312 268.0
67.05390930175781 2526.0
68.05042266845703 878.0
69.06011199951172 599.0
70.06666564941406 964.0
77.037841796875 2643.0
79.05484008789062 15311.0
80.04862976074219 4000.0
81.07010650634766 15677.0
82.06627655029297 4748.0
84.0820083618164 661.0
91.05226135253906 2551.0
93.06920623779297 1071.0
94.0641860961914 3181.0
95.07266998291016 1887.0
96.08102416992188 1399.0
103.05753326416016 200.0
105.06736755371094 1189.0
106.06511688232422 1818.0
107.08354187011719 558.0
108.08203887939453 4343.0
109.08956146240234 380.0
110.09734344482422 4098.0
115.05519104003906 1576.0
117.05675506591797 4535.0
118.06400299072266 477.0
119.08476257324219 247.0
120.07762145996094 1112.0
121.08849334716797 320.0
122.09740447998047 1722.0
124.11058044433594 885.0
127.05284118652344 204.0
128.0513153076172 224.0
129.0584716796875 670.0
130.06637573242188 535.0
131.07177734375 735.0
132.08103942871094 324.0
134.09982299804688 2184.0
135.10435485839844 396.0
136.11099243164062 3170.0
138.12722778320312 1904.0
141.0535125732422 573.0
142.0636444091797 864.0
143.07232666015625 2180.0
144.08291625976562 729.0
145.05477905273438 3545.0
146.06045532226562 684.0
147.0712890625 237.0
154.0670928955078 2427.0
155.072021484375 1786.0
156.08197021484375 581.0
157.0512237548828 493.0
158.0623016357422 2720.0
159.0659942626953 1409.0
160.076416015625 45154.0
161.0864715576172 178.0
162.09613037109375 876.0
166.12110900878906 6215.0
167.07022094726562 2071.0
168.07659912109375 546.0
169.05316162109375 2289.0
170.06549072265625 1281.0
171.0679931640625 925.0
172.07711791992188 19420.0
173.08367919921875 5646.0
174.08761596679688 2237.0
176.06883239746094 413.0
179.07386779785156 245.0
180.08181762695312 1078.0
181.0926055908203 637.0
182.06834411621094 1053.0
183.0695037841797 2534.0
184.0771942138672 11765.0
185.08193969726562 800.0
186.09132385253906 8885.0
187.09962463378906 304.0
188.07022094726562 2163.0
189.08192443847656 3624.0
190.0789337158203 189.0
192.07691955566406 260.0
193.08372497558594 391.0
194.09512329101562 363.0
195.07388305664062 477.0
196.0786895751953 1504.0
197.0860595703125 1167.0
198.09207153320312 7126.0
199.0907440185547 1221.0
200.07009887695312 898.0
202.08387756347656 1902.0
204.08168029785156 756.0
205.0892791748047 359.0
206.1013946533203 556.0
207.09376525878906 400.0
208.07638549804688 551.0
209.08567810058594 532.0
210.09335327148438 2824.0
211.09120178222656 1096.0
212.10574340820312 1263.0
213.10015869140625 628.0
214.0886993408203 1124.0
215.10009765625 194.0
217.09490966796875 188.0
218.098876953125 419.0
219.10101318359375 275.0
220.08045959472656 364.0
221.11842346191406 634.0
222.08770751953125 577.0
223.10943603515625 520.0
224.10618591308594 2047.0
225.10726928710938 925.0
226.12747192382812 1419.0
227.120361328125 1644.0
230.09718322753906 214.0
232.10675048828125 278.0
233.1190948486328 486.0
234.1014404296875 642.0
235.1009063720703 501.0
236.1046600341797 1003.0
237.09759521484375 998.0
238.11859130859375 975.0
239.1222381591797 629.0
240.13671875 472.0
247.10174560546875 329.0
248.11529541015625 605.0
249.10877990722656 1011.0
250.1242218017578 1030.0
251.1217041015625 3535.0
252.13677978515625 1460.0
253.13156127929688 7216.0
254.1573944091797 645.0
262.1205749511719 500.0
263.12347412109375 523.0
264.1396789550781 2952.0
265.135009765625 1404.0
266.1528015136719 1170.0
268.1712646484375 188.0
275.1259765625 310.0
276.1394348144531 510.0
277.13372802734375 566.0
278.1555480957031 1386.0
279.151123046875 2963.0
280.1719665527344 298.0
281.1687927246094 274.0
291.1481018066406 258.0
297.2013244628906 850.0
307.1832275390625 21678.0
324.19879150390625 432.0
325.195068359375 137028.0

Name: Lobeline hydrochloride
Precursor_mz: 338.2126897
Cas: 134-63-4
Adduct: [M+H]+
Mz: 338.2114556
Comment: Major
Smiles: CN1[C@H](C[C@H](O)c2ccccc2)CCC[C@@H]1CC(=O)c1ccccc1
Formula: C22H27NO2
Mix: Alkaloids-pos-mix3
Rt: [3.118, 3.193]
Rt_apex: 3.114407387
Rt_start: 3.046266667
Rt_end: 3.1591
Ms1_intensity: 5270859
N_scnas: 16
Ms1_scan_range: [801, 811, 818]
Reci_snr: 2.7e-05
Ms2_scan_idx: 1423
Pmz_offset: 0.001806095
Entropy: 0.9896166920661926
Num Peaks: 62
41.04170608520508 229.0
42.033843994140625 2063.0
44.05086898803711 304.0
51.024078369140625 667.0
53.03936004638672 407.0
55.053062438964844 302.0
58.06480407714844 280.0
67.05390167236328 1411.0
68.04925537109375 3623.0
69.07060241699219 233.0
70.06548309326172 4873.0
77.0390625 19224.0
79.05233764648438 6718.0
80.04736328125 3514.0
81.05619812011719 4835.0
82.06499481201172 1654.0
83.0736312866211 170.0
91.05626678466797 16295.0
93.05836486816406 393.0
94.06553649902344 17312.0
96.08100891113281 723792.0
97.08500671386719 187.0
98.09700012207031 58821.0
103.05467224121094 392.0
105.03427124023438 166556.0
107.0486831665039 3446.0
108.08056640625 6557.0
109.08954620361328 9929.0
110.09585571289062 1565.0
114.09233856201172 3203.0
115.05366516113281 2076.0
117.06736755371094 2332.0
118.06856536865234 193.0
127.05440521240234 754.0
128.06240844726562 8169.0
129.0712127685547 1920.0
131.08621215820312 1215.0
136.0733184814453 477.0
141.06849670410156 2266.0
142.07701110839844 276.0
143.0857391357422 11107.0
146.0943603515625 649.0
148.11634826660156 849.0
157.10220336914062 327.0
159.0801239013672 1746.0
162.09075927734375 272.0
167.08470153808594 556.0
169.10057067871094 370.0
170.09107971191406 688.0
172.11575317382812 189.0
174.13018798828125 556.0
184.1114501953125 273.0
185.09718322753906 574.0
187.10726928710938 182.0
188.1067657470703 2552.0
198.12759399414062 896.0
200.14549255371094 75760.0
216.14068603515625 108261.0
218.15481567382812 25088.0
320.2037353515625 18583.0
337.16925048828125 451.0
338.2136535644531 128338.0

Name: Colchicine
Precursor_mz: 400.1768401
Cas: 64-86-8
Adduct: [M+H]+
Mz: 400.175464
Comment: Major
Smiles: COc1cc2c(c(OC)c1OC)-c1ccc(OC)c(=O)cc1[C@@H](NC(C)=O)CC2
Formula: C22H25NO6
Mix: Alkaloids-pos-mix3
Rt: [3.021]
Rt_apex: 3.022580918
Rt_start: 2.947283333
Rt_end: 3.1986
Ms1_intensity: 6313256
N_scnas: 37
Ms1_scan_range: [786, 797, 824]
Reci_snr: 7.82e-05
Ms2_scan_idx: 1340
Pmz_offset: 0.001260015
Entropy: 0.9760950803756714
Num Peaks: 253
42.032955169677734 188.0
43.019439697265625 1482.0
44.04996109008789 465.0
45.03427505493164 201.0
56.049842834472656 454.0
60.0457878112793 801.0
70.03028106689453 313.0
75.04693603515625 205.0
80.04991912841797 225.0
84.04601287841797 706.0
85.03177642822266 209.0
86.06102752685547 401.0
91.05095672607422 607.0
95.04944610595703 305.0
98.06369018554688 183.0
100.04271697998047 553.0
103.05472564697266 480.0
104.06149291992188 238.0
105.06884765625 205.0
107.05018615722656 421.0
109.06761932373047 194.0
110.03113555908203 186.0
115.05372619628906 883.0
117.06893920898438 298.0
119.04805755615234 525.0
121.06383514404297 910.0
122.04008483886719 276.0
123.0436019897461 455.0
125.06610107421875 220.0
127.05288696289062 353.0
128.06405639648438 549.0
129.06967163085938 186.0
130.06642150878906 717.0
131.05093383789062 679.0
132.0585174560547 153.0
133.05213928222656 1229.0
134.0608673095703 168.0
135.03915405273438 291.0
136.0553741455078 212.0
137.062255859375 3591.0
138.06956481933594 431.0
139.0524139404297 397.0
140.07029724121094 538.0
141.06857299804688 716.0
143.05224609375 177.0
144.0543212890625 294.0
145.06497192382812 1363.0
146.06219482421875 491.0
147.07135009765625 419.0
148.05665588378906 727.0
149.05894470214844 284.0
150.0560302734375 1232.0
151.0736846923828 717.0
152.0653533935547 2523.0
153.0672149658203 959.0
154.0775909423828 216.0
155.0825653076172 351.0
158.06588745117188 385.0
159.0395050048828 294.0
160.07647705078125 1099.0
161.0580291748047 1010.0
162.0604705810547 335.0
163.07855224609375 421.0
164.06207275390625 445.0
165.07379150390625 3026.0
166.08499145507812 628.0
167.079345703125 987.0
168.06210327148438 453.0
169.0659942626953 579.0
172.07350158691406 245.0
173.0597381591797 980.0
174.05621337890625 364.0
175.06109619140625 828.0
176.07261657714844 2442.0
177.06275939941406 1288.0
178.0781707763672 1725.0
179.0758056640625 1766.0
180.0800018310547 688.0
181.08889770507812 4423.0
182.07220458984375 976.0
183.08096313476562 964.0
184.0867919921875 381.0
185.05909729003906 347.0
187.07666015625 481.0
188.07798767089844 1944.0
189.06655883789062 940.0
190.0809326171875 1221.0
191.0747528076172 1336.0
192.0672607421875 971.0
193.06820678710938 1188.0
194.07369995117188 1692.0
195.079833984375 3724.0
196.07875061035156 1830.0
197.06643676757812 1357.0
198.0644989013672 718.0
199.072998046875 1227.0
200.07810974121094 277.0
201.06982421875 235.0
202.0879364013672 433.0
203.09461975097656 2135.0
204.07373046875 1515.0
205.0732879638672 2133.0
206.0792999267578 1932.0
207.0857696533203 3767.0
208.0865936279297 1495.0
209.06141662597656 1468.0
210.0690155029297 1242.0
211.08108520507812 2663.0
212.0853729248047 1906.0
213.08795166015625 1186.0
214.09288024902344 258.0
215.07754516601562 613.0
216.0789031982422 278.0
217.06605529785156 596.0
218.08859252929688 1041.0
219.09278869628906 2579.0
220.09718322753906 1965.0
221.0934600830078 1838.0
222.0689697265625 1206.0
223.0780792236328 5066.0
224.08316040039062 6277.0
225.0947265625 2445.0
226.0959014892578 1725.0
227.07391357421875 4109.0
228.07948303222656 658.0
229.08938598632812 625.0
230.08236694335938 261.0
231.0945587158203 642.0
232.076904296875 326.0
233.0656280517578 1104.0
234.11656188964844 5305.0
235.07518005371094 9045.0
236.08319091796875 3822.0
237.09120178222656 5750.0
238.0948486328125 2777.0
239.10714721679688 6645.0
240.08460998535156 4885.0
241.08804321289062 5700.0
242.0957489013672 3322.0
243.06617736816406 818.0
244.0823974609375 238.0
245.10511779785156 811.0
246.09255981445312 602.0
247.07977294921875 1700.0
248.08665466308594 2925.0
249.09779357910156 4114.0
250.09323120117188 5200.0
251.08177185058594 11813.0
252.0945281982422 7623.0
253.08924865722656 4429.0
254.0948486328125 2839.0
255.0912628173828 5945.0
256.1075744628906 1694.0
257.1236572265625 1024.0
258.087646484375 1144.0
259.1031494140625 562.0
260.1228942871094 153.0
261.10382080078125 585.0
262.09112548828125 1223.0
263.0711975097656 5069.0
264.0987243652344 3741.0
265.0916748046875 7340.0
266.1048278808594 6513.0
267.10382080078125 41015.0
268.09783935546875 7860.0
269.0867614746094 3857.0
270.0913391113281 4941.0
271.09320068359375 2805.0
272.1223449707031 1058.0
273.1186828613281 1449.0
274.08892822265625 297.0
275.093505859375 323.0
276.10455322265625 1504.0
277.091796875 3991.0
278.09716796875 10483.0
279.0856018066406 9922.0
280.096923828125 6590.0
281.1194763183594 10555.0
282.1297607421875 46499.0
283.1040954589844 17723.0
284.1061096191406 4844.0
285.11700439453125 18300.0
286.1130676269531 3358.0
287.1013488769531 3706.0
288.103271484375 379.0
289.1188659667969 292.0
290.12188720703125 502.0
291.0979309082031 721.0
292.10919189453125 3555.0
293.1005554199219 5342.0
294.1056823730469 10186.0
295.1052551269531 41163.0
296.1017150878906 7845.0
297.11676025390625 4571.0
298.12872314453125 15164.0
299.12298583984375 6171.0
300.1261901855469 10099.0
301.1286315917969 3525.0
302.12542724609375 2129.0
304.0946350097656 316.0
305.1012268066406 291.0
306.12176513671875 1602.0
307.12432861328125 1080.0
308.1285400390625 4474.0
309.1170959472656 15073.0
310.1270446777344 60766.0
311.0989990234375 25657.0
312.12457275390625 3967.0
313.1468505859375 10160.0
314.1260070800781 3733.0
315.1341247558594 1509.0
316.15631103515625 3006.0
317.1026916503906 186.0
319.0799255371094 259.0
320.0884094238281 684.0
321.10601806640625 994.0
322.15045166015625 683.0
323.1385498046875 2105.0
324.1281433105469 9316.0
325.1319274902344 4305.0
326.1347351074219 34105.0
328.1195068359375 11452.0
329.1319885253906 2199.0
330.1460266113281 1901.0
334.11004638671875 768.0
335.1163024902344 617.0
336.1343688964844 1109.0
337.1024169921875 659.0
338.1415710449219 1540.0
339.15386962890625 5597.0
340.159912109375 10939.0
341.146728515625 28699.0
342.1375732421875 7940.0
343.1454162597656 3664.0
350.14483642578125 1138.0
351.14337158203125 475.0
352.13018798828125 2701.0
353.1368408203125 392.0
354.1871643066406 1440.0
357.1592102050781 996.0
358.17034912109375 70798.0
366.1471862792969 875.0
367.1440734863281 4960.0
368.150390625 2733.0
370.1374816894531 390.0
382.17230224609375 17843.0
383.1468200683594 627.0
384.1418151855469 408.0
385.1518859863281 224.0
398.94976806640625 678.0
400.18121337890625 250026.0
401.43701171875 153.0
401.69012451171875 202.0

Name: Colchicine
Precursor_mz: 422.1566047
Cas: 64-86-8
Adduct: [M+Na]+
Mz: 422.1574082
Comment: Major
Smiles: COc1cc2c(c(OC)c1OC)-c1ccc(OC)c(=O)cc1[C@@H](NC(C)=O)CC2
Formula: C22H25NO6
Mix: Alkaloids-pos-mix3
Rt: [3.021]
Rt_apex: 3.021875236
Rt_start: 2.934283333
Rt_end: 3.126433333
Ms1_intensity: 155824
N_scnas: 28
Ms1_scan_range: [784, 797, 813]
Reci_snr: 0.000639269
Ms2_scan_idx: 1310
Pmz_offset: 0.000660013
Entropy: 1.0
Num Peaks: 3
378.144775390625 92.0
379.149658203125 196.0
422.16094970703125 5177.0

Name: Miconazole nitrate
Precursor_mz: 414.9943509
Cas: 22832-87-7
Adduct: [M+H]+
Mz: 414.9933003
Comment: Major
Smiles: Clc1ccc(COC(Cn2ccnc2)c2ccc(Cl)cc2Cl)c(Cl)c1
Formula: C18H14Cl4N2O
Mix: Alkaloids-pos-mix3
Rt: [4.414]
Rt_apex: 4.413090464
Rt_start: 4.367683333
Rt_end: 4.826316667
Ms1_intensity: 3988306
N_scnas: 72
Ms1_scan_range: [1052, 1060, 1125]
Reci_snr: 0.000105221
Ms2_scan_idx: 2038
Pmz_offset: 0.003129696
Entropy: 0.9459394216537476
Num Peaks: 34
69.04734802246094 21783.0
81.04618072509766 1194.0
82.05364227294922 1183.0
82.94586181640625 154.0
86.01942443847656 92.0
88.03279876708984 401.0
89.03762817382812 8075.0
96.98419952392578 828.0
98.99981689453125 3566.0
123.00008392333984 32291.0
124.00753784179688 7406.0
132.95997619628906 3216.0
136.00634765625 214.0
137.01141357421875 154.0
158.9776611328125 1099393.0
159.92745971679688 682.0
161.9605255126953 92.0
170.98373413085938 398.0
171.98341369628906 760.0
172.99154663085938 154.0
203.04074096679688 354.0
212.0384979248047 394.0
227.01905822753906 13958.0
239.0226593017578 611.0
246.00685119628906 554.0
247.0159454345703 263.0
255.01295471191406 194.0
280.971435546875 316.0
281.9814453125 538.0
316.9429626464844 566.0
413.71539306640625 795.0
414.9979553222656 293344.0
416.2710876464844 177.0
416.53167724609375 191.0

Name: Hordenine
Precursor_mz: 166.1232625
Cas: 539-15-1
Adduct: [M+H]+
Mz: 166.1226406
Comment: Major
Smiles: CN(C)CCc1ccc(O)cc1
Formula: C10H15NO
Mix: Alkaloids-pos-mix3
Rt: [0.625]
Rt_apex: 0.635917427
Rt_start: 0.49395
Rt_end: 1.3622
Ms1_intensity: 677033
N_scnas: 279
Ms1_scan_range: [149, 174, 429]
Reci_snr: 0.000819731
Ms2_scan_idx: 234
Pmz_offset: 0.002037681
Entropy: 0.9906203746795654
Num Peaks: 27
41.038089752197266 465.0
43.01847839355469 77.0
46.06465148925781 2025.0
49.00849914550781 46.0
50.016658782958984 585.0
51.02405548095703 9032.0
53.03831481933594 515.0
55.01868438720703 436.0
58.0637092590332 319.0
63.02096176147461 46.0
65.0398941040039 1980.0
66.04874420166016 99.0
74.01467895507812 46.0
75.02497863769531 77.0
77.03903198242188 73065.0
78.04737854003906 579.0
79.05355072021484 90.0
91.05488586425781 28696.0
93.06915283203125 14496.0
94.03963470458984 1118.0
95.04935455322266 1619.0
101.03742218017578 77.0
102.04566192626953 1357.0
103.05462646484375 29544.0
119.04794311523438 338.0
121.06526184082031 82796.0
166.12281799316406 422.0

Name: Yohimbine hydrochloride
Precursor_mz: 355.2016101
Cas: 65-19-0
Adduct: [M+H]+
Mz: 355.2016192
Comment: Major
Smiles: COC(=O)[C@H]1[C@@H](O)CC[C@H]2CN3CCc4c([nH]c5ccccc45)[C@@H]3C[C@@H]21
Formula: C21H26N2O3
Mix: Alkaloids-pos-mix4
Rt: [2.512]
Rt_apex: 2.509634602
Rt_start: 2.469833333
Rt_end: 2.83065
Ms1_intensity: 3350926
N_scnas: 66
Ms1_scan_range: [676, 683, 743]
Reci_snr: 0.000548503
Ms2_scan_idx: 1049
Pmz_offset: 0.002112646
Entropy: 0.9434465765953064
Num Peaks: 81
44.05093002319336 795.0
56.05094909667969 701.0
77.04041290283203 273.0
80.04875183105469 443.0
89.03768157958984 747.0
91.0550765991211 2636.0
93.06934356689453 404.0
94.06568908691406 1204.0
103.05342102050781 727.0
105.07184600830078 843.0
106.06527709960938 2150.0
107.08080291748047 346.0
115.05386352539062 5494.0
116.06609344482422 438.0
117.07060241699219 14735.0
118.06114196777344 531.0
119.08647918701172 250.0
120.0901107788086 439.0
127.05462646484375 5453.0
128.051513671875 1855.0
129.07142639160156 465.0
130.06658935546875 1955.0
131.07359313964844 208.0
132.07965087890625 741.0
133.06849670410156 199.0
134.09678649902344 6959.0
135.07847595214844 247.0
136.11448669433594 572.0
142.06387329101562 639.0
143.07424926757812 10504.0
144.08314514160156 223343.0
145.06515502929688 450.0
146.09800720214844 558.0
150.0940399169922 177.0
152.10189819335938 303.0
155.06353759765625 610.0
156.08047485351562 746.0
157.09017944335938 377.0
158.10137939453125 1828.0
162.09283447265625 3953.0
168.0805206298828 564.0
169.08810424804688 212.0
170.0932159423828 505.0
177.09100341796875 215.0
180.1009521484375 2473.0
182.0989532470703 443.0
192.1005859375 580.0
194.12086486816406 4669.0
204.08802795410156 324.0
205.0856170654297 202.0
206.1017303466797 449.0
207.11228942871094 201.0
208.109130859375 449.0
209.12661743164062 214.0
210.1120147705078 273.0
212.13265991210938 35133.0
218.09925842285156 563.0
219.1117706298828 184.0
220.11830139160156 583.0
221.11671447753906 200.0
224.13388061523438 4509.0
231.1119384765625 272.0
232.10928344726562 434.0
233.12164306640625 317.0
234.1276092529297 441.0
246.1325225830078 539.0
248.1466827392578 965.0
260.150390625 747.0
266.1647033691406 311.0
276.1376037597656 380.0
288.14178466796875 276.0
294.1542053222656 1043.0
306.1614685058594 381.0
308.17083740234375 656.0
312.16961669921875 212.0
320.1767272949219 249.0
324.1639709472656 221.0
326.1858825683594 816.0
337.1982421875 185.0
338.1807556152344 651.0
355.20782470703125 44101.0

Name: Yohimbine hydrochloride
Precursor_mz: 355.2016896
Cas: 65-19-0
Adduct: [M+H]+
Mz: 355.2016192
Comment: Minor
Smiles: COC(=O)[C@H]1[C@@H](O)CC[C@H]2CN3CCc4c([nH]c5ccccc45)[C@@H]3C[C@@H]21
Formula: C21H26N2O3
Mix: Alkaloids-pos-mix4
Rt: [2.512]
Rt_apex: 2.43233353
Rt_start: 2.380333333
Rt_end: 2.469833333
Ms1_intensity: 54840
N_scnas: 15
Ms1_scan_range: [660, 670, 676]
Reci_snr: 0.026510514
Ms2_scan_idx: 1025
Pmz_offset: 0.002192138
Entropy: 1.0
Num Peaks: 19
44.05000305175781 77.0
91.0577621459961 137.0
94.06297302246094 135.0
103.05342102050781 101.0
115.05537414550781 171.0
117.06756591796875 664.0
127.05146789550781 227.0
134.0951690673828 375.0
143.07424926757812 553.0
144.0814666748047 11204.0
155.06529235839844 77.0
162.09640502929688 93.0
180.10096740722656 178.0
194.11697387695312 294.0
212.1285858154297 1085.0
224.1296844482422 289.0
234.12547302246094 77.0
338.1807556152344 93.0
355.2052001953125 3660.0

Name: Irinotecan Hydrochloride
Precursor_mz: 587.2867455
Cas: 100286-90-6
Adduct: [M+H]+
Mz: 587.2864114
Comment: Major
Smiles: CCc1c2c(nc3ccc(OC(=O)N4CCC(N5CCCCC5)CC4)cc13)-c1cc3c(c(=O)n1C2)COC(=O)[C@]3(O)CC
Formula: C33H38N4O6
Mix: Alkaloids-pos-mix4
Rt: [2.796]
Rt_apex: 2.796450626
Rt_start: 2.588
Rt_end: 3.225283333
Ms1_intensity: 3203708
N_scnas: 123
Ms1_scan_range: [695, 738, 819]
Reci_snr: 0.001075869
Ms2_scan_idx: 1170
Pmz_offset: 0.002743497
Entropy: 1.0000001192092896
Num Peaks: 17
84.0807876586914 41.0
86.09751892089844 41.0
98.09709167480469 113.0
110.05915832519531 106.0
124.11381530761719 333.0
167.11572265625 228.0
195.1505126953125 221.0
303.1485290527344 31.0
331.1542053222656 51.0
361.1646423339844 31.0
375.1465148925781 51.0
405.1487731933594 41.0
414.21795654296875 51.0
458.2085266113281 79.0
502.1991271972656 162.0
543.2882690429688 80.0
587.2879638671875 1369.0

Name: Irinotecan Hydrochloride
Precursor_mz: 609.2695977
Cas: 100286-90-6
Adduct: [M+Na]+
Mz: 609.2683557
Comment: Major
Smiles: CCc1c2c(nc3ccc(OC(=O)N4CCC(N5CCCCC5)CC4)cc13)-c1cc3c(c(=O)n1C2)COC(=O)[C@]3(O)CC
Formula: C33H38N4O6
Mix: Alkaloids-pos-mix4
Rt: [2.796]
Rt_apex: 2.787484444
Rt_start: 2.756683333
Rt_end: 2.960783333
Ms1_intensity: 3255
N_scnas: 32
Ms1_scan_range: [730, 736, 763]
Reci_snr: 0.015632638
Ms2_scan_idx: 1223
Pmz_offset: 0.002823889
Entropy: 1.0
Num Peaks: 2
565.2880249023438 154.0
609.2793579101562 93.0

Name: Capsaicin
Precursor_mz: 306.2063704
Cas: 404-86-4
Adduct: [M+H]+
Mz: 306.2063702
Comment: Major
Smiles: COc1cc(CNC(=O)CCCC/C=C/C(C)C)ccc1O
Formula: C18H27NO3
Mix: Alkaloids-pos-mix4
Rt: [4.52]
Rt_apex: 4.523255519
Rt_start: 4.435
Rt_end: 4.8834
Ms1_intensity: 3002834
N_scnas: 83
Ms1_scan_range: [1088, 1102, 1172]
Reci_snr: 8.52e-05
Ms2_scan_idx: 1996
Pmz_offset: 0.001935223
Entropy: 0.9647411108016968
Num Peaks: 50
40.03214645385742 346.0
41.03994369506836 3599.0
43.01853561401367 3195.0
44.014591217041016 582.0
51.02412414550781 715.0
53.040435791015625 714.0
55.05624008178711 1520.0
57.07040786743164 1185.0
58.03064727783203 3062.0
65.03998565673828 1978.0
66.04884338378906 8197.0
67.0562744140625 2878.0
69.07067108154297 8094.0
71.08885192871094 372.0
72.08501434326172 353.0
77.0403823852539 6364.0
79.05491638183594 10608.0
81.07271575927734 7168.0
83.08651733398438 1270.0
84.08080291748047 748.0
85.06417846679688 187.0
86.06108093261719 465.0
91.0550308227539 11349.0
93.0706558227539 4488.0
94.04251098632812 175428.0
95.0864486694336 1787.0
97.06714630126953 2081.0
98.09850311279297 408.0
100.07646942138672 1265.0
105.07179260253906 2505.0
107.05026245117188 3781.0
109.10140991210938 4266.0
111.07881927490234 531.0
112.076416015625 245.0
114.09397888183594 1804.0
119.04814147949219 334.0
121.02841186523438 243.0
122.03861999511719 369887.0
123.11685943603516 1071.0
126.09465789794922 1099.0
133.10243225097656 2994.0
135.1208038330078 5316.0
137.06236267089844 1126496.0
138.12738037109375 1384.0
139.1170654296875 153.0
147.11912536621094 382.0
151.11175537109375 727.0
153.12985229492188 3024.0
170.15353393554688 1224.0
182.15757751464844 2405.0

Name: Capsaicin
Precursor_mz: 328.1883938
Cas: 404-86-4
Adduct: [M+Na]+
Mz: 328.1883144
Comment: Major
Smiles: COc1cc(CNC(=O)CCCC/C=C/C(C)C)ccc1O
Formula: C18H27NO3
Mix: Alkaloids-pos-mix4
Rt: [4.52]
Rt_apex: 4.519286367
Rt_start: 4.4192
Rt_end: 4.712066667
Ms1_intensity: 367410
N_scnas: 49
Ms1_scan_range: [1084, 1102, 1134]
Reci_snr: 0.000546368
Ms2_scan_idx: 1967
Pmz_offset: 0.000477804
Entropy: 1.0000001192092896
Num Peaks: 7
77.04031372070312 62.0
79.0573501586914 62.0
94.04242706298828 648.0
109.0632095336914 62.0
122.03851318359375 585.0
137.0589599609375 791.0
328.1856384277344 633.0

Name: Metronidazole
Precursor_mz: 172.0720013
Cas: 443-48-1
Adduct: [M+H]+
Mz: 172.0716676
Comment: Major
Smiles: Cc1ncc([N+](=O)[O-])n1CCO
Formula: C6H9N3O3
Mix: Alkaloids-pos-mix4
Rt: [1.331]
Rt_apex: 1.328636138
Rt_start: 1.290783333
Rt_end: 1.443983333
Ms1_intensity: 918098
N_scnas: 44
Ms1_scan_range: [432, 442, 477]
Reci_snr: 0.001064627
Ms2_scan_idx: 537
Pmz_offset: 9.04e-05
Entropy: 1.0
Num Peaks: 17
40.021522521972656 154.0
41.02738952636719 5061.0
42.034820556640625 21272.0
43.01856994628906 9841.0
45.034324645996094 16618.0
54.034393310546875 522.0
55.044830322265625 154.0
56.03730773925781 4547.0
57.02275466918945 756.0
69.0450668334961 154.0
81.04371643066406 2849.0
82.05370330810547 114529.0
83.06099700927734 757.0
95.0632553100586 309.0
111.04193115234375 5776.0
128.04678344726562 44163.0
172.0756072998047 644.0

Name: Theophylline
Precursor_mz: 181.0718333
Cas: 58-55-9
Adduct: [M+H]+
Mz: 181.072002
Comment: Major
Smiles: Cn1c(=O)c2[nH]cnc2n(C)c1=O
Formula: C7H8N4O2
Mix: Alkaloids-pos-mix4
Rt: [1.557]
Rt_apex: 1.556439365
Rt_start: 1.486416667
Rt_end: 1.629833333
Ms1_intensity: 1418608
N_scnas: 35
Ms1_scan_range: [490, 509, 526]
Reci_snr: 0.000219364
Ms2_scan_idx: 634
Pmz_offset: 0.009451219
Entropy: 0.9963753819465637
Num Peaks: 33
40.01797103881836 651.0
41.02469253540039 227.0
42.034820556640625 87694.0
44.047218322753906 93.0
54.02201843261719 1802.0
55.03025436401367 1066.0
56.014198303222656 123.0
67.02759552001953 791.0
68.03548431396484 658.0
69.0450668334961 38768.0
79.02753448486328 221.0
80.01487731933594 206.0
81.0462417602539 922.0
82.01557922363281 406.0
83.02519226074219 1478.0
93.04365539550781 854.0
94.03985595703125 2069.0
95.02495574951172 744.0
96.05506134033203 30254.0
97.03956604003906 1131.0
106.04362487792969 123.0
108.05306243896484 1173.0
109.02674865722656 5112.0
110.071044921875 313.0
113.03528594970703 93.0
120.05631256103516 270.0
121.05011749267578 464.0
122.03250885009766 668.0
124.0514144897461 110060.0
137.08053588867188 878.0
142.06558227539062 93.0
149.04547119140625 299.0
181.0721893310547 23147.0

Name: Albendazole
Precursor_mz: 266.0965519
Cas: 54965-21-8
Adduct: [M+H]+
Mz: 266.0957744
Comment: Major
Smiles: CCCSc1ccc2[nH]c(NC(=O)OC)nc2c1
Formula: C12H15N3O2S
Mix: Alkaloids-pos-mix4
Rt: [3.232]
Rt_apex: 3.226548252
Rt_start: 3.1451
Rt_end: 3.550266667
Ms1_intensity: 4655032
N_scnas: 80
Ms1_scan_range: [807, 819, 888]
Reci_snr: 7.08e-05
Ms2_scan_idx: 1489
Pmz_offset: 0.00238242
Entropy: 0.9873917102813721
Num Peaks: 66
41.03999710083008 1298.0
43.05357360839844 1961.0
59.01190948486328 318.0
76.02032470703125 318.0
77.02446746826172 777.0
78.03520202636719 289.0
79.04005432128906 326.0
81.98766326904297 211.0
90.03231048583984 251.0
92.0366439819336 1972.0
92.98009490966797 337.0
93.98548126220703 576.0
94.99491119384766 205.0
96.00286102294922 1106.0
103.04210662841797 1506.0
104.03880310058594 8000.0
105.04316711425781 1681.0
108.99750518798828 1841.0
109.99308776855469 243.0
111.01242065429688 504.0
112.02159881591797 336.0
116.03897094726562 333.0
118.0536117553711 479.0
119.0498275756836 10459.0
120.05484008789062 862.0
120.99769592285156 3900.0
122.00777435302734 3338.0
123.0127182006836 1287.0
130.03948974609375 2498.0
131.04798889160156 18888.0
132.053955078125 888.0
133.06051635742188 1002.0
134.07252502441406 496.0
135.00030517578125 362.0
136.00982666015625 16405.0
137.01983642578125 949.0
138.02532958984375 241.0
146.0726776123047 732.0
147.04103088378906 5467.0
148.0091552734375 1261.0
149.0164337158203 668.0
150.023681640625 803.0
158.03445434570312 1926.0
159.0433807373047 289249.0
160.0501708984375 3860.0
162.01614379882812 1048.0
163.02154541015625 50788.0
164.03005981445312 10361.0
165.03627014160156 1259.0
166.01663208007812 350.0
172.04994201660156 332.0
177.04074096679688 402.0
178.04296875 357.0
179.05177307128906 1466.0
186.07456970214844 407.0
190.00588989257812 4548.0
191.0169677734375 740551.0
192.02488708496094 225041.0
204.02806091308594 1402.0
205.03553771972656 1553.0
206.07369995117188 597.0
207.0801544189453 356.0
209.07809448242188 456.0
223.04083251953125 1740.0
234.0719757080078 727114.0
266.100830078125 27400.0

Name: Mebendazole
Precursor_mz: 296.1034443
Cas: 31431-39-7
Adduct: [M+H]+
Mz: 296.1029677
Comment: Major
Smiles: COC(=O)Nc1nc2cc(C(=O)c3ccccc3)ccc2[nH]1
Formula: C16H13N3O3
Mix: Alkaloids-pos-mix4
Rt: [3.193]
Rt_apex: 3.188676266
Rt_start: 3.142116667
Rt_end: 4.090433333
Ms1_intensity: 3980132
N_scnas: 208
Ms1_scan_range: [806, 813, 1015]
Reci_snr: 0.000159619
Ms2_scan_idx: 1439
Pmz_offset: 0.002210196
Entropy: 0.975517213344574
Num Peaks: 55
50.015750885009766 1014.0
51.02313995361328 8947.0
53.0394287109375 875.0
59.01616287231445 293.0
76.0190200805664 269.0
77.0404052734375 344612.0
78.03264617919922 422.0
95.04816436767578 1776.0
103.02918243408203 1107.0
104.0386962890625 3033.0
105.03443145751953 644803.0
115.05835723876953 398.0
130.04095458984375 13435.0
131.04624938964844 5125.0
132.05703735351562 3244.0
139.0509033203125 1118.0
140.05052185058594 593.0
141.07205200195312 201.0
145.03977966308594 369.0
147.07830810546875 362.0
154.06556701660156 711.0
156.07693481445312 558.0
158.03782653808594 12699.0
159.04498291015625 21395.0
160.05001831054688 7051.0
164.05325317382812 187.0
166.0670928955078 9070.0
167.072265625 2441.0
176.0504608154297 292.0
181.07777404785156 2089.0
182.0629425048828 270.0
186.0341796875 35402.0
191.05751037597656 981.0
192.06747436523438 372.0
193.08401489257812 394.0
194.0582733154297 400.0
195.0741729736328 438.0
207.0900421142578 377.0
208.08682250976562 7736.0
209.07179260253906 285.0
218.0743408203125 655.0
219.0826416015625 311.0
220.089111328125 245.0
235.07545471191406 494.0
236.0856170654297 5454.0
237.10011291503906 392.0
238.09512329101562 409.0
239.08572387695312 801.0
246.06643676757812 2410.0
247.0712432861328 247.0
252.12156677246094 1031.0
264.0807800292969 1057114.0
265.0942687988281 1324.0
295.20928955078125 250.0
296.1069030761719 93777.0

Name: Palonosetron hydrochloride
Precursor_mz: 297.1960291
Cas: 135729-62-3
Adduct: [M+H]+
Mz: 297.1961399
Comment: Major
Smiles: O=C1c2cccc3c2[C@H](CCC3)CN1[C@@H]1CN2CCC1CC2
Formula: C19H24N2O
Mix: Alkaloids-pos-mix4
Rt: [2.833]
Rt_apex: 2.832453525
Rt_start: 2.78515
Rt_end: 3.16595
Ms1_intensity: 1752975
N_scnas: 73
Ms1_scan_range: [736, 743, 810]
Reci_snr: 2.23e-05
Ms2_scan_idx: 1302
Pmz_offset: 0.00187704
Entropy: 0.9999998807907104
Num Peaks: 8
56.0509033203125 92.0
81.07142639160156 511.0
82.06505584716797 489.0
93.06656646728516 92.0
110.09742736816406 2397.0
188.10887145996094 420.0
252.1748809814453 92.0
297.20159912109375 8024.0

Name: Cinchonidine
Precursor_mz: 295.1810117
Cas: 485-71-2
Adduct: [M+H]+
Mz: 295.1804898
Comment: Major
Smiles: C=C[C@H]1C[N@@]2CC[C@H]1C[C@H]2[C@H](O)c1ccnc2ccccc12
Formula: C19H22N2O
Mix: Alkaloids-pos-mix4
Rt: [1.933]
Rt_apex: 1.929479024
Rt_start: 1.800616667
Rt_end: 2.532166667
Ms1_intensity: 1356263
N_scnas: 121
Ms1_scan_range: [564, 585, 686]
Reci_snr: 0.000270514
Ms2_scan_idx: 805
Pmz_offset: 0.001734026
Entropy: 0.9914522171020508
Num Peaks: 105
41.0390739440918 1997.0
42.034820556640625 724.0
53.04047393798828 1284.0
55.056278228759766 1991.0
56.0520133972168 764.0
65.04003143310547 466.0
66.0466079711914 360.0
67.05632019042969 2257.0
77.03673553466797 2449.0
79.05497741699219 13593.0
80.0500259399414 2807.0
81.07024383544922 14139.0
82.06514739990234 4177.0
84.0821533203125 364.0
91.05375671386719 2480.0
93.07072448730469 1457.0
94.0643539428711 2112.0
95.07009887695312 1506.0
96.08119201660156 1259.0
101.0418930053711 366.0
103.05628967285156 889.0
105.06755828857422 975.0
106.06385803222656 1068.0
107.08518981933594 398.0
108.08077239990234 3259.0
109.08829498291016 277.0
110.09754180908203 1795.0
115.0553970336914 2275.0
116.05402374267578 216.0
117.06910705566406 601.0
118.06574249267578 336.0
119.07425689697266 237.0
120.083984375 725.0
122.09762573242188 1796.0
124.11237335205078 883.0
127.0514907836914 413.0
128.05154418945312 2885.0
129.05711364746094 861.0
130.06661987304688 25705.0
132.0796661376953 1644.0
134.09518432617188 2635.0
135.10459899902344 452.0
136.11451721191406 1670.0
138.12913513183594 609.0
142.06724548339844 8820.0
143.07260131835938 5434.0
144.07980346679688 3346.0
146.09124755859375 289.0
154.0673828125 6314.0
155.0758056640625 1072.0
156.08050537109375 10010.0
157.0884552001953 249.0
158.06082153320312 934.0
159.06982421875 1078.0
166.07078552246094 1256.0
167.0723419189453 6004.0
168.08236694335938 9275.0
169.0771942138672 1366.0
170.09326171875 693.0
172.0774383544922 2062.0
179.0817108154297 226.0
180.08216857910156 4414.0
181.07406616210938 1116.0
182.09141540527344 1187.0
183.0945281982422 905.0
184.0756378173828 1941.0
191.0711669921875 371.0
192.07728576660156 897.0
193.08799743652344 1319.0
194.0974578857422 2245.0
195.0958251953125 753.0
196.1144256591797 1602.0
197.10614013671875 838.0
204.08607482910156 1194.0
205.08364868164062 504.0
206.09774780273438 1652.0
207.0941619873047 640.0
208.1112060546875 1126.0
209.10435485839844 647.0
210.13037109375 353.0
217.08499145507812 417.0
218.09515380859375 1282.0
219.1014404296875 1137.0
220.1100311279297 1010.0
221.1146697998047 1410.0
222.1237030029297 1215.0
223.12454223632812 1419.0
224.15284729003906 399.0
230.10401916503906 238.0
231.0991973876953 230.0
232.11361694335938 515.0
233.1088409423828 313.0
234.1319580078125 2003.0
235.12503051757812 2644.0
236.13961791992188 783.0
246.13697814941406 442.0
247.119873046875 505.0
248.14894104003906 998.0
249.13363647460938 327.0
252.1417236328125 748.0
266.1556091308594 232.0
267.1891174316406 244.0
275.1498107910156 187.0
277.17401123046875 12240.0
295.185302734375 57855.0

Name: Hydroquinidine
Precursor_mz: 327.2066018
Cas: 1435-55-8
Adduct: [M+H]+
Mz: 327.2067045
Comment: Major
Smiles: CC[C@H]1C[N@@]2CC[C@H]1C[C@@H]2[C@@H](O)c1ccnc2ccc(OC)cc12
Formula: C20H26N2O2
Mix: Alkaloids-pos-mix5
Rt: [2.158]
Rt_apex: 2.152386624
Rt_start: 2.093033333
Rt_end: 2.410516667
Ms1_intensity: 1231860
N_scnas: 51
Ms1_scan_range: [549, 558, 601]
Reci_snr: 0.000273357
Ms2_scan_idx: 1007
Pmz_offset: 0.000922174
Entropy: 0.9775989055633545
Num Peaks: 127
41.039222717285156 1067.0
42.03315353393555 616.0
44.04924011230469 728.0
55.05439376831055 9298.0
56.0490608215332 873.0
58.06510925292969 374.0
67.05310821533203 634.0
68.04961395263672 192.0
69.06979370117188 555.0
70.0634994506836 257.0
77.04070281982422 230.0
80.04904174804688 456.0
81.07052612304688 351.0
82.06542205810547 2671.0
83.08557891845703 1347.0
84.08243560791016 1405.0
91.0513916015625 365.0
93.06968688964844 611.0
94.06739044189453 944.0
95.0895767211914 594.0
96.07876586914062 566.0
98.09612274169922 1320.0
105.07078552246094 188.0
107.07247924804688 215.0
108.08113098144531 1308.0
109.10185241699219 226.0
110.096435546875 4385.0
112.10955810546875 356.0
115.05277252197266 632.0
117.0573501586914 1438.0
122.09803009033203 639.0
123.10801696777344 189.0
124.11277770996094 1164.0
126.12825775146484 836.0
129.0575408935547 242.0
130.06704711914062 340.0
131.0740509033203 379.0
134.09237670898438 280.0
136.11167907714844 1405.0
137.11712646484375 240.0
138.1246337890625 1253.0
140.14239501953125 577.0
142.06771850585938 275.0
143.07473754882812 1127.0
144.0802764892578 229.0
145.05552673339844 1353.0
146.0561065673828 230.0
150.12722778320312 602.0
154.06788635253906 1077.0
155.07106018066406 1270.0
156.0757598876953 289.0
158.06134033203125 819.0
159.06680297851562 423.0
160.07545471191406 14633.0
162.0915985107422 1087.0
166.06590270996094 269.0
167.07107543945312 1166.0
168.14114379882812 2676.0
169.0522003173828 894.0
170.0645294189453 538.0
171.06703186035156 407.0
172.0780029296875 8178.0
173.08456420898438 1758.0
174.0940704345703 1337.0
180.0789794921875 378.0
181.08975219726562 296.0
182.059814453125 696.0
183.0704345703125 989.0
184.07814025878906 5340.0
185.0828857421875 513.0
186.09036254882812 6974.0
187.1005859375 201.0
188.07118225097656 661.0
189.0771026611328 1036.0
192.07789611816406 225.0
194.0941619873047 279.0
195.0729217529297 285.0
196.07968139648438 1126.0
197.08706665039062 966.0
198.0930938720703 4732.0
199.08583068847656 797.0
200.1048583984375 470.0
202.08889770507812 773.0
208.10174560546875 222.0
210.09036254882812 1832.0
211.09840393066406 582.0
212.1109161376953 744.0
213.10125732421875 844.0
214.08363342285156 412.0
221.11746215820312 193.0
222.08676147460938 277.0
223.09381103515625 430.0
224.10733032226562 1207.0
225.10421752929688 576.0
226.12440490722656 1470.0
227.11940002441406 2340.0
228.1314239501953 210.0
234.13270568847656 201.0
235.08705139160156 175.0
236.1080322265625 997.0
237.10096740722656 413.0
238.12413024902344 1189.0
239.11912536621094 493.0
240.14012145996094 349.0
249.10562133789062 245.0
250.11883544921875 346.0
251.11631774902344 2128.0
252.13360595703125 796.0
253.1373291015625 2050.0
254.1542205810547 448.0
255.15298461914062 182.0
265.1386413574219 560.0
266.15643310546875 2052.0
268.1703186035156 719.0
277.1678466796875 202.0
278.1546325683594 211.0
279.1478576660156 359.0
280.16400146484375 1418.0
281.17022705078125 2721.0
282.1900329589844 208.0
292.1753234863281 227.0
298.1810302734375 414.0
299.2142028808594 379.0
307.184814453125 235.0
309.2024841308594 14956.0
326.20977783203125 226.0
327.2091369628906 104079.0

Name: Ethionamide
Precursor_mz: 167.0636356
Cas: 536-33-4
Adduct: [M+H]+
Mz: 167.063746
Comment: Major
Smiles: CCc1cc(C(N)=S)ccn1
Formula: C8H10N2S
Mix: Alkaloids-pos-mix5
Rt: [1.314]
Rt_apex: 1.308846094
Rt_start: 1.266933333
Rt_end: 1.7569
Ms1_intensity: 898787
N_scnas: 105
Ms1_scan_range: [388, 394, 494]
Reci_snr: 0.00016388
Ms2_scan_idx: 544
Pmz_offset: 0.0
Entropy: 0.9963914752006531
Num Peaks: 33
51.024234771728516 668.0
52.03054428100586 274.0
53.036460876464844 154.0
65.03899383544922 1461.0
66.04669952392578 491.0
67.04261779785156 262.0
77.04053497314453 1304.0
78.03401947021484 3843.0
79.0550765991211 2902.0
80.05138397216797 4765.0
81.0577163696289 983.0
89.03913879394531 201.0
90.03369903564453 154.0
91.04182434082031 1302.0
92.0501708984375 3981.0
93.05865478515625 3107.0
97.01065826416016 601.0
106.0668716430664 43486.0
107.07514953613281 109049.0
108.0794448852539 861.0
110.00787353515625 2261.0
112.02315521240234 300.0
117.04495239257812 635.0
118.05368041992188 13737.0
119.06214904785156 1328.0
123.09217834472656 300.0
124.02029418945312 1569.0
125.03190612792969 24367.0
133.07676696777344 14729.0
134.08560180664062 5602.0
140.05406188964844 40569.0
152.039794921875 866.0
167.0652618408203 6084.0

Name: Topotecan hydrochloride
Precursor_mz: 444.1503668
Cas: 119413-54-6
Adduct: [M+Na]+
Mz: 444.1529916
Comment: Major
Smiles: CC[C@@]1(O)C(=O)OCc2c1cc1n(c2=O)Cc2cc3c(CN(C)C)c(O)ccc3nc2-1
Formula: C23H23N3O5
Mix: Alkaloids-pos-mix5
Rt: [2.105]
Rt_apex: 2.101839359
Rt_start: 2.0517
Rt_end: 2.158533333
Ms1_intensity: 5738
N_scnas: 15
Ms1_scan_range: [543, 550, 559]
Reci_snr: 0.046212163
Ms2_scan_idx: 937
Pmz_offset: 0.002351583
Entropy: 1.0
Num Peaks: 2
355.115966796875 62.0
399.0912780761719 62.0

Name: Gefitinib
Precursor_mz: 447.1604138
Cas: 184475-35-2
Adduct: [M+H]+
Mz: 447.1593729
Comment: Major
Smiles: COc1cc2ncnc(Nc3ccc(F)c(Cl)c3)c2cc1OCCCN1CCOCC1
Formula: C22H24ClFN4O3
Mix: Alkaloids-pos-mix5
Rt: [2.385]
Rt_apex: 2.385565427
Rt_start: 2.3473
Rt_end: 2.546833333
Ms1_intensity: 844289
N_scnas: 29
Ms1_scan_range: [591, 597, 621]
Reci_snr: 0.047960941
Ms2_scan_idx: 1145
Pmz_offset: 0.002657202
Entropy: 0.9571202397346497
Num Peaks: 20
56.048954010009766 380.0
58.06393051147461 154.0
70.06571960449219 741.0
72.08517456054688 154.0
86.06388092041016 322.0
98.09732818603516 154.0
100.07669067382812 53320.0
126.09020233154297 93.0
128.10731506347656 246158.0
128.96006774902344 166.0
129.07801818847656 92.0
304.0269775390625 180.0
305.0383605957031 306.0
320.0566711425781 1162.0
330.0526428222656 92.0
332.07745361328125 92.0
345.07275390625 93.0
346.07708740234375 198.0
360.10211181640625 707.0
447.16546630859375 9167.0

Name: Vincristine sulfate
Precursor_mz: 825.4099997
Cas: 2068-78-2
Adduct: [M+H]+
Mz: 825.4069205
Comment: Major
Smiles: CC[C@]1(O)C[C@H]2C[N@](CCc3c([nH]c4ccccc34)[C@@](C(=O)OC)(c3cc4c(cc3OC)N(C=O)[C@H]3[C@@](O)(C(=O)OC)[C@H](OC(C)=O)[C@]5(CC)C=CCN6CC[C@]43[C@@H]65)C2)C1
Formula: C46H56N4O10
Mix: Alkaloids-pos-mix5
Rt: [2.986]
Rt_apex: 2.980180923
Rt_start: 2.918316667
Rt_end: 3.21995
Ms1_intensity: 667875
N_scnas: 46
Ms1_scan_range: [677, 686, 724]
Reci_snr: 0.000324465
Ms2_scan_idx: 1545
Pmz_offset: 0.002010526
Entropy: 0.9307211637496948
Num Peaks: 45
122.0994644165039 662.0
124.11266326904297 187.0
138.131103515625 175.0
140.10903930664062 572.0
144.08351135253906 384.0
154.12173461914062 257.0
224.13233947753906 1402.0
225.13980102539062 916.0
226.14529418945312 214.0
265.1703796386719 337.0
337.1887512207031 229.0
353.19354248046875 768.0
355.20867919921875 221.0
455.2199401855469 292.0
538.2807006835938 185.0
555.2348022460938 167.0
556.2802124023438 331.0
570.2982788085938 198.0
598.2775268554688 291.0
599.287109375 815.0
604.29248046875 280.0
618.3199462890625 228.0
624.269775390625 230.0
645.3488159179688 228.0
654.2811279296875 185.0
663.3615112304688 733.0
664.3052368164062 273.0
676.3092041015625 232.0
677.3569946289062 571.0
678.3287963867188 366.0
687.345947265625 1091.0
694.3391723632812 208.0
696.3336791992188 290.0
705.3649291992188 6068.0
715.3623657226562 289.0
723.383056640625 3619.0
733.362548828125 959.0
737.4039306640625 177.0
747.3834228515625 2089.0
765.3873901367188 31275.0
775.3779296875 507.0
783.4013061523438 1915.0
793.393798828125 285.0
807.4002685546875 17949.0
825.4072875976562 414647.0

Name: Vincristine sulfate
Precursor_mz: 847.3838952
Cas: 2068-78-2
Adduct: [M+Na]+
Mz: 847.3888647
Comment: Major
Smiles: CC[C@]1(O)C[C@H]2C[N@](CCc3c([nH]c4ccccc34)[C@@](C(=O)OC)(c3cc4c(cc3OC)N(C=O)[C@H]3[C@@](O)(C(=O)OC)[C@H](OC(C)=O)[C@]5(CC)C=CCN6CC[C@]43[C@@H]65)C2)C1
Formula: C46H56N4O10
Mix: Alkaloids-pos-mix5
Rt: [2.986]
Rt_apex: 3.004438964
Rt_start: 2.92515
Rt_end: 3.0848
Ms1_intensity: 76283
N_scnas: 23
Ms1_scan_range: [678, 690, 702]
Reci_snr: 0.004561754
Ms2_scan_idx: 1577
Pmz_offset: 0.000701071
Entropy: 1.0
Num Peaks: 9
705.384033203125 92.0
733.3858032226562 93.0
747.3954467773438 92.0
755.3463745117188 123.0
765.3839721679688 338.0
787.3739013671875 387.0
805.388427734375 788.0
815.37939453125 176.0
847.3960571289062 20408.0

Name: Vindoline
Precursor_mz: 457.2340795
Cas: 2182-14-1
Adduct: [M+H]+
Mz: 457.2333132
Comment: Major
Smiles: CC[C@]12C=CCN3CC[C@@]4(c5ccc(OC)cc5N(C)[C@H]4[C@@](O)(C(=O)OC)[C@@H]1OC(C)=O)[C@@H]32
Formula: C25H32N2O6
Mix: Alkaloids-pos-mix5
Rt: [3.213]
Rt_apex: 3.213150139
Rt_start: 3.164633333
Rt_end: 3.917416667
Ms1_intensity: 17801667
N_scnas: 126
Ms1_scan_range: [714, 723, 841]
Reci_snr: 3.64e-05
Ms2_scan_idx: 1739
Pmz_offset: 0.002818234
Entropy: 0.9564886093139648
Num Peaks: 273
41.03731918334961 135.0
42.03304672241211 1583.0
43.01677322387695 402.0
55.0532112121582 227.0
56.04681396484375 134.0
67.05522918701172 153.0
68.0494384765625 155.0
77.03804016113281 1672.0
78.04389953613281 178.0
79.05504608154297 809.0
80.05009460449219 1003.0
81.0703125 1513.0
82.06648254394531 207.0
83.04827880859375 449.0
87.0063247680664 198.0
89.0404281616211 472.0
90.04698181152344 146.0
91.05249786376953 6328.0
92.04743957519531 279.0
93.06944274902344 6910.0
94.06714630126953 1029.0
95.08659362792969 661.0
101.02222442626953 171.0
102.04881286621094 335.0
103.05352020263672 2405.0
104.05170440673828 921.0
105.06907653808594 1718.0
106.06393432617188 1944.0
107.07219696044922 667.0
108.08085632324219 3525.0
109.06346130371094 103.0
110.10057067871094 215.0
111.0804672241211 138.0
115.0539779663086 3591.0
116.0601577758789 502.0
117.06768035888672 1944.0
118.0643081665039 1956.0
119.03759765625 41355.0
120.08100128173828 434.0
121.06255340576172 1684.0
122.09616088867188 15843.0
123.08123016357422 176.0
124.11714935302734 294.0
127.05000305175781 389.0
128.06117248535156 982.0
129.06996154785156 1529.0
130.0651092529297 8165.0
131.07211303710938 1302.0
132.05718994140625 1777.0
133.06214904785156 10902.0
134.0611572265625 13510.0
135.10305786132812 1320.0
136.11297607421875 4617.0
137.04449462890625 327.0
138.0929412841797 126.0
140.05233764648438 90.0
141.0655517578125 175.0
142.0640106201172 636.0
143.07101440429688 1937.0
144.0815887451172 17434.0
145.08895874023438 35265.0
146.06082153320312 3658.0
147.07847595214844 8808.0
148.0757598876953 8163.0
149.09353637695312 144.0
150.0907440185547 1373.0
151.0740203857422 222.0
152.0743408203125 502.0
154.06748962402344 492.0
155.07415771484375 400.0
156.0806121826172 6192.0
157.08856201171875 34829.0
158.06092834472656 11140.0
159.06993103027344 681.0
160.07504272460938 869.0
161.08331298828125 26032.0
162.0911865234375 52697.0
163.10220336914062 199.0
164.07679748535156 138.0
165.0849609375 367.0
167.0706329345703 3070.0
168.07521057128906 194.0
169.08460998535156 224.0
170.08970642089844 159.0
171.07943725585938 500.0
172.07571411132812 9018.0
173.08412170410156 203514.0
174.09176635742188 32036.0
175.09861755371094 476.0
176.1065216064453 3071.0
179.05929565429688 27703.0
180.10299682617188 1285.0
181.08551025390625 248.0
182.09532165527344 145.0
183.06996154785156 199.0
184.0757598876953 383.0
185.0862274169922 552.0
186.0898895263672 875.0
187.09817504882812 4558.0
188.10919189453125 1392562.0
189.11907958984375 3400.0
189.2194366455078 252.0
190.12197875976562 9484.0
190.98788452148438 198.0
191.0965118408203 196.0
191.2284393310547 154.0
192.06573486328125 555.0
193.076416015625 15552.0
194.08389282226562 24015.0
195.095947265625 125.0
196.0791778564453 172.0
197.08262634277344 964.0
198.088623046875 1432.0
199.0991668701172 723.0
200.10633850097656 5414.0
201.112060546875 336.0
202.0923614501953 1930.0
203.1190643310547 643.0
204.09823608398438 805.0
205.0897979736328 173.0
206.08177185058594 544.0
207.08824157714844 20790.0
208.09310913085938 94.0
210.10202026367188 384.0
211.0998992919922 597.0
212.1083221435547 2913.0
213.1129913330078 2031.0
214.08924865722656 2338.0
215.11917114257812 4984.0
216.12269592285156 2827.0
217.13475036621094 238.0
218.08700561523438 603.0
220.09767150878906 959.0
222.11337280273438 44712.0
223.0953369140625 156.0
224.10255432128906 315.0
225.10153198242188 283.0
226.1238250732422 767.0
227.11036682128906 479.0
228.10540771484375 8452.0
229.10899353027344 675.0
230.12118530273438 4975.0
231.1142578125 689.0
232.09878540039062 11098.0
234.10418701171875 294.0
235.0928955078125 166.0
236.1009521484375 225.0
237.10250854492188 325.0
238.09536743164062 503.0
239.127197265625 372.0
240.10035705566406 1273.0
241.12997436523438 140.0
242.11373901367188 743.0
243.10389709472656 387.0
244.10264587402344 326.0
245.09686279296875 96.0
246.1173095703125 555.0
247.10678100585938 87.0
248.12698364257812 786.0
249.10940551757812 221.0
250.11154174804688 304.0
251.11788940429688 928.0
252.13296508789062 562.0
253.1344451904297 7272.0
254.14462280273438 462.0
255.14337158203125 492.0
256.0991516113281 8751.0
257.1017150878906 385.0
258.1130065917969 12157.0
259.11273193359375 112.0
260.13250732421875 238.0
261.11346435546875 196.0
262.1144104003906 622.0
263.1309509277344 528.0
264.1289367675781 368.0
265.13568115234375 2393.0
266.1466064453125 1288.0
267.1502990722656 1376.0
268.1650390625 165.0
269.12188720703125 88.0
270.114990234375 727.0
272.1322021484375 5419.0
273.1146240234375 309.0
274.10577392578125 1522.0
275.12200927734375 386.0
276.1214904785156 1107.0
277.13677978515625 522.0
278.1515808105469 225.0
279.1495056152344 630.0
280.1656494140625 1176.0
281.1624450683594 1608.0
282.1704406738281 3507.0
283.1802673339844 4574.0
286.1350402832031 126.0
287.14715576171875 212.0
288.1229553222656 3210.0
289.13140869140625 959.0
290.1392517089844 3705.0
291.1488342285156 2093.0
292.1601867675781 373.0
293.1684875488281 1159.0
294.1712951660156 685.0
295.1806335449219 12005.0
296.1820373535156 283.0
297.20208740234375 386.0
300.1316833496094 159.0
301.1414794921875 159.0
302.1358642578125 883.0
303.1123352050781 693.0
304.1589050292969 299.0
305.16070556640625 365.0
306.1813659667969 231.0
307.14959716796875 845.0
308.14892578125 679.0
309.1967468261719 6658.0
317.1258850097656 935.0
318.14129638671875 620.0
319.1833801269531 3577.0
320.1644287109375 393.0
321.121826171875 267.0
322.15869140625 181.0
324.166748046875 346.0
325.193359375 535.0
326.16583251953125 290.0
329.1658020019531 314.0
330.1314392089844 1345.0
331.14703369140625 90.0
332.1462707519531 1017.0
335.14013671875 818.0
336.1582336425781 371.0
337.193359375 45441.0
338.1706848144531 91.0
347.1767883300781 7543.0
349.1563415527344 544.0
350.1639709472656 609.0
351.1756896972656 281.0
353.1507873535156 2592.0
354.1060791015625 86.0
355.20281982421875 28602.0
357.1387634277344 107.0
362.1766052246094 129.0
363.1761169433594 286.0
364.0752258300781 97.0
364.1823425292969 182.0
365.1872863769531 37423.0
367.1636962890625 2002.0
368.1754455566406 6819.0
369.1777648925781 233.0
377.1938171386719 111.0
379.202392578125 28258.0
380.19500732421875 153.0
395.1923828125 430.0
395.9962463378906 1989.0
397.2147216796875 763046.0
399.1384582519531 83.0
407.1969909667969 93.0
415.2245178222656 3594.0
439.22418212890625 49337.0
455.8271789550781 3651.0
457.2334289550781 779785.0
458.3503723144531 2124.0
458.4825744628906 2435.0
458.5997619628906 380.0
458.8432312011719 825.0
458.9544372558594 213.0
459.083740234375 108.0
459.2851867675781 136.0
459.4115295410156 131.0
459.5288391113281 119.0
460.091552734375 90.0
460.77508544921875 110.0
461.6912536621094 88.0
462.249267578125 110.0

Name: Vindoline
Precursor_mz: 479.2132317
Cas: 2182-14-1
Adduct: [M+Na]+
Mz: 479.2152575
Comment: Major
Smiles: CC[C@]12C=CCN3CC[C@@]4(c5ccc(OC)cc5N(C)[C@H]4[C@@](O)(C(=O)OC)[C@@H]1OC(C)=O)[C@@H]32
Formula: C25H32N2O6
Mix: Alkaloids-pos-mix5
Rt: [3.213]
Rt_apex: 3.206593303
Rt_start: 3.171466667
Rt_end: 3.428116667
Ms1_intensity: 29151
N_scnas: 42
Ms1_scan_range: [715, 721, 758]
Reci_snr: 0.003433664
Ms2_scan_idx: 1751
Pmz_offset: 0.000134688
Entropy: 1.0
Num Peaks: 13
119.03913116455078 77.0
173.082275390625 169.0
179.06117248535156 77.0
188.1053466796875 3689.0
215.07183837890625 77.0
227.1188201904297 83.0
295.17340087890625 121.0
359.173095703125 275.0
387.1685485839844 160.0
390.17303466796875 97.0
397.2203063964844 731.0
419.197265625 1405.0
479.2257080078125 755.0

Name: Lappaconitine
Precursor_mz: 585.3186766
Cas: 32854-75-4
Adduct: [M+H]+
Mz: 585.3170428
Comment: Major
Smiles: CCN1C[C@]2(OC(=O)c3ccccc3NC(C)=O)CC[C@H](OC)[C@]34C1[C@H](C[C@H]23)[C@@]1(O)C[C@H](OC)[C@H]2C[C@@H]4[C@]1(O)[C@H]2OC
Formula: C32H44N2O8
Mix: Alkaloids-pos-mix5
Rt: [2.792]
Rt_apex: 2.790888413
Rt_start: 2.751983333
Rt_end: 3.204633333
Ms1_intensity: 10036083
N_scnas: 68
Ms1_scan_range: [652, 658, 721]
Reci_snr: 6.69e-05
Ms2_scan_idx: 1404
Pmz_offset: 0.002043597
Entropy: 0.9324049353599548
Num Peaks: 291
41.040096282958984 215.0
43.01685333251953 346.0
44.050140380859375 561.0
45.03257369995117 371.0
46.06393051147461 953.0
55.016876220703125 205.0
56.04902267456055 868.0
58.066139221191406 3793.0
59.05085754394531 251.0
67.05420684814453 246.0
71.04888153076172 2200.0
72.0816879272461 452.0
75.04480743408203 3664.0
77.03941345214844 251.0
79.05519104003906 752.0
81.06920623779297 314.0
83.04971313476562 449.0
84.08109283447266 3997.0
85.06576538085938 664.0
87.0444564819336 393.0
88.077880859375 2126.0
91.05534362792969 2515.0
92.047607421875 919.0
93.06961822509766 683.0
94.06732940673828 373.0
95.05120086669922 459.0
96.08007049560547 442.0
97.06332397460938 478.0
98.09605407714844 796.0
99.04485321044922 213.0
101.06050109863281 1207.0
103.05514526367188 238.0
105.07215118408203 1627.0
107.0491714477539 600.0
108.08106231689453 1002.0
109.06513214111328 989.0
110.09930419921875 430.0
111.043701171875 485.0
113.0579605102539 942.0
114.0898666381836 304.0
115.05570220947266 1258.0
116.06037902832031 359.0
117.06941986083984 2660.0
119.08528900146484 916.0
120.04432678222656 9855.0
121.06278228759766 1006.0
122.09794616699219 848.0
123.04409790039062 743.0
125.06033325195312 1156.0
127.05815124511719 256.0
128.0614013671875 1269.0
129.07020568847656 9294.0
130.07815551757812 362.0
131.08682250976562 6898.0
133.10772705078125 572.0
134.1004180908203 398.0
135.08047485351562 506.0
136.1083221435547 178.0
137.05953979492188 2223.0
138.05528259277344 938.0
139.07614135742188 288.0
141.0691375732422 1984.0
142.07765197753906 1033.0
143.084716796875 2529.0
144.04649353027344 1744.0
145.10275268554688 1357.0
146.0950164794922 668.0
147.08045959472656 902.0
148.10848999023438 1150.0
149.06126403808594 315.0
151.0742950439453 646.0
152.06423950195312 212.0
153.06784057617188 1086.0
154.0817108154297 368.0
155.08668518066406 5674.0
156.0984344482422 477.0
157.1046905517578 8244.0
158.09652709960938 851.0
159.11802673339844 2735.0
160.11264038085938 612.0
161.09609985351562 4599.0
162.05577087402344 105424.0
163.06666564941406 273.0
164.1058807373047 353.0
165.0708465576172 2168.0
166.0784454345703 484.0
167.08546447753906 5271.0
168.0955352783203 387.0
169.09951782226562 2539.0
170.10101318359375 515.0
171.0797576904297 1255.0
172.11102294921875 760.0
173.0973663330078 844.0
174.12911987304688 2970.0
175.13980102539062 537.0
176.0751953125 633.0
177.08963012695312 222.0
178.0807647705078 1514.0
179.08592224121094 2535.0
180.0939178466797 820.0
181.0990753173828 3530.0
182.09567260742188 814.0
183.11778259277344 1068.0
184.11228942871094 910.0
185.09994506835938 1517.0
186.1304473876953 713.0
187.11581420898438 1258.0
188.14996337890625 325.0
189.09434509277344 381.0
190.07977294921875 395.0
191.08522033691406 2273.0
192.09527587890625 778.0
193.1040802001953 7792.0
194.11553955078125 835.0
195.11590576171875 4066.0
196.10902404785156 1324.0
197.09678649902344 1466.0
198.13047790527344 2559.0
199.11538696289062 1918.0
200.1464080810547 756.0
201.0945281982422 420.0
202.15858459472656 928.0
203.08544921875 1770.0
204.09861755371094 4563.0
205.10023498535156 4631.0
206.1123809814453 1909.0
207.1128692626953 4325.0
208.1198272705078 553.0
209.13125610351562 4940.0
210.1288604736328 13388.0
211.1145782470703 2068.0
212.14755249023438 11291.0
213.1502685546875 1954.0
214.15740966796875 485.0
215.10105895996094 543.0
216.0921630859375 482.0
217.10000610351562 993.0
218.11228942871094 743.0
219.11859130859375 20701.0
220.1168212890625 485.0
221.13609313964844 4742.0
222.12425231933594 770.0
223.11671447753906 3179.0
224.1470947265625 507.0
225.1293182373047 2424.0
226.15379333496094 267.0
227.11289978027344 1982.0
228.14398193359375 646.0
229.10305786132812 2738.0
230.15780639648438 332.0
231.1147003173828 1801.0
232.08639526367188 739.0
233.1287078857422 808.0
234.1239471435547 446.0
235.1148681640625 2467.0
236.14236450195312 1399.0
237.12889099121094 9782.0
238.1586151123047 1520.0
239.15151977539062 1193.0
240.13995361328125 778.0
241.15875244140625 799.0
242.1556854248047 2311.0
243.14593505859375 477.0
244.1688995361328 479.0
245.12368774414062 392.0
246.1287841796875 596.0
247.11607360839844 13622.0
248.1473388671875 1809.0
249.1320343017578 3719.0
250.15640258789062 1465.0
251.14727783203125 13888.0
252.1445770263672 383.0
253.1282196044922 2798.0
254.16299438476562 303.0
255.1393585205078 915.0
257.147216796875 266.0
258.1901550292969 222.0
259.1358337402344 2468.0
260.16693115234375 335.0
261.12982177734375 1594.0
262.1580810546875 552.0
263.13372802734375 1806.0
264.1773376464844 3858.0
265.12933349609375 3734.0
266.1585693359375 1651.0
267.1416015625 1306.0
268.1793518066406 303.0
269.15692138671875 3568.0
270.18701171875 1829.0
271.1312561035156 723.0
273.1568908691406 422.0
274.1597595214844 2764.0
275.17376708984375 271.0
276.16632080078125 235.0
277.1536560058594 431.0
278.163818359375 238.0
279.14300537109375 21233.0
280.1732177734375 6434.0
281.15826416015625 3272.0
282.17803955078125 714.0
283.1737060546875 1719.0
284.1711120605469 581.0
285.1489562988281 468.0
286.1806945800781 232.0
287.16436767578125 428.0
290.1541442871094 242.0
291.1757507324219 294.0
292.1727294921875 21007.0
293.1546325683594 708.0
294.186279296875 543.0
295.15948486328125 2037.0
296.1994934082031 4741.0
297.1470031738281 5636.0
298.1832275390625 5227.0
299.1678771972656 1004.0
301.1858825683594 489.0
302.1754455566406 471.0
303.1568908691406 586.0
306.1893005371094 4157.0
308.15936279296875 194.0
309.1726379394531 901.0
310.18267822265625 1666.0
311.1671142578125 8829.0
312.1977233886719 732.0
313.18536376953125 1371.0
314.18450927734375 770.0
315.165283203125 318.0
316.1900329589844 1381.0
317.18145751953125 173.0
323.2054443359375 366.0
324.19769287109375 130897.0
325.1889343261719 448.0
326.22222900390625 372.0
327.1936950683594 1266.0
328.2326965332031 1645.0
329.1791687011719 2781.0
330.2085876464844 6863.0
331.2012939453125 227.0
338.2126159667969 5113.0
342.2064514160156 8797.0
343.18841552734375 2744.0
344.2186584472656 187.0
345.1930847167969 201.0
346.2080383300781 1129.0
353.1936340332031 211.0
354.2123718261719 335.0
355.1214904785156 407.0
356.22509765625 162663.0
360.2490234375 500.0
361.2058410644531 698.0
370.2469787597656 2623.0
373.09576416015625 172.0
374.23779296875 47042.0
386.228271484375 233.0
387.0450439453125 260.0
388.25244140625 106501.0
392.244384765625 1591.0
398.1865539550781 185.0
406.2637939453125 59851.0
421.21746826171875 245.0
424.2729797363281 13038.0
429.21563720703125 372.0
443.2397766113281 377.0
453.2132568359375 374.0
458.20404052734375 428.0
459.2349548339844 210.0
461.2399597167969 501.0
471.2269592285156 944.0
475.2596740722656 829.0
485.241943359375 791.0
490.2253723144531 263.0
503.2642822265625 13461.0
507.2892761230469 3835.0
517.2719116210938 1927.0
535.2864379882812 117075.0
549.3021850585938 2403.0
553.2923583984375 5342.0
567.3130493164062 110823.0
585.3224487304688 1158290.0
586.5861206054688 3556.0
586.7390747070312 4693.0
587.1436157226562 1081.0
587.2796630859375 376.0
587.3919067382812 238.0
587.5177612304688 156.0
587.6572265625 376.0
587.7796630859375 175.0
587.9259643554688 169.0
588.0348510742188 174.0
588.5590209960938 171.0
588.9506225585938 162.0

Name: Lappaconitine
Precursor_mz: 607.2975805
Cas: 32854-75-4
Adduct: [M+Na]+
Mz: 607.2989871
Comment: Major
Smiles: CCN1C[C@]2(OC(=O)c3ccccc3NC(C)=O)CC[C@H](OC)[C@]34C1[C@H](C[C@H]23)[C@@]1(O)C[C@H](OC)[C@H]2C[C@@H]4[C@]1(O)[C@H]2OC
Formula: C32H44N2O8
Mix: Alkaloids-pos-mix5
Rt: [2.792]
Rt_apex: 2.794547796
Rt_start: 2.751983333
Rt_end: 2.9858
Ms1_intensity: 26559
N_scnas: 34
Ms1_scan_range: [652, 658, 687]
Reci_snr: 0.003391116
Ms2_scan_idx: 1407
Pmz_offset: 0.000214289
Entropy: 1.0
Num Peaks: 6
356.23040771484375 77.0
374.2405090332031 301.0
388.25518798828125 1909.0
406.2637939453125 1959.0
428.2451477050781 225.0
607.297607421875 459.0

Name: Oxysophocarpine
Precursor_mz: 263.1748713
Cas: 26904-64-3
Adduct: [M+H]+
Mz: 263.1754044
Comment: Major
Smiles: O=C1C=CC[C@@H]2[C@H]3CCC[N@@+]4([O-])CCC[C@@H](CN12)[C@@H]34
Formula: C15H22N2O2
Mix: Alkaloids-pos-mix5
Rt: [1.408]
Rt_apex: 1.410906022
Rt_start: 1.312916667
Rt_end: 1.799066667
Ms1_intensity: 1183511
N_scnas: 106
Ms1_scan_range: [395, 410, 502]
Reci_snr: 0.000120734
Ms2_scan_idx: 604
Pmz_offset: 0.002253552
Entropy: 0.9959942102432251
Num Peaks: 97
41.04092788696289 462.0
42.033058166503906 278.0
44.04821014404297 406.0
55.0553092956543 260.0
56.04893493652344 327.0
57.057804107666016 93.0
58.06818389892578 216.0
67.05180358886719 642.0
68.05061340332031 708.0
69.03349304199219 194.0
70.06452178955078 1607.0
72.08038330078125 611.0
77.03682708740234 503.0
79.05506896972656 1031.0
80.05262756347656 898.0
81.07034301757812 425.0
82.06523895263672 1512.0
83.07388305664062 1245.0
84.07967376708984 1599.0
91.05386352539062 974.0
93.06812286376953 777.0
94.064453125 1788.0
95.07157135009766 936.0
96.07992553710938 5887.0
97.08944702148438 856.0
98.09868621826172 6977.0
99.1047592163086 313.0
103.05355834960938 448.0
104.04887390136719 639.0
105.06910705566406 538.0
107.07223510742188 346.0
108.08088684082031 1735.0
110.09619140625 4413.0
112.11078643798828 865.0
115.05250549316406 259.0
117.05860900878906 1226.0
118.06434631347656 1184.0
119.08816528320312 223.0
120.08103942871094 1938.0
121.0888442993164 731.0
123.10462188720703 627.0
124.11250305175781 2926.0
125.11978149414062 247.0
126.05706787109375 93.0
131.07376098632812 3799.0
132.07980346679688 1527.0
133.04762268066406 370.0
134.0953369140625 3332.0
135.104736328125 805.0
136.11300659179688 26269.0
137.1201171875 4673.0
138.12762451171875 16355.0
142.06405639648438 403.0
143.0744171142578 260.0
144.08163452148438 357.0
145.0535125732422 210.0
146.06256103515625 3066.0
147.0700225830078 1434.0
150.1286163330078 21683.0
151.13442993164062 478.0
159.06822204589844 6203.0
160.07687377929688 4818.0
161.0851593017578 1013.0
163.08253479003906 939.0
166.12158203125 463.0
172.07577514648438 1081.0
173.091552734375 181.0
174.09182739257812 2261.0
175.11911010742188 614.0
176.1103057861328 524.0
177.13790893554688 9773.0
178.1535186767578 262.0
186.09185791015625 3463.0
188.10733032226562 1013.0
189.1017608642578 635.0
190.1143035888672 396.0
191.11984252929688 1783.0
195.14892578125 888.0
200.10838317871094 527.0
201.10813903808594 192.0
202.1223602294922 1210.0
203.11912536621094 18578.0
204.13037109375 350.0
205.13609313964844 621.0
216.14132690429688 579.0
217.16998291015625 1470.0
218.1450958251953 462.0
226.12600708007812 93.0
227.15484619140625 2285.0
228.13938903808594 2254.0
230.15744018554688 232.0
231.14633178710938 2069.0
243.15211486816406 570.0
245.16725158691406 128920.0
246.1746368408203 4675.0
262.3804016113281 392.0
263.1788635253906 140551.0

Name: Sinomenine
Precursor_mz: 330.170333
Cas: 115-53-7
Adduct: [M+H]+
Mz: 330.1699847
Comment: Major
Smiles: COC1=C[C@@H]2[C@@H]3Cc4ccc(OC)c(O)c4[C@]2(CCN3C)CC1=O
Formula: C19H23NO4
Mix: Alkaloids-pos-mix5
Rt: [1.808]
Rt_apex: 1.806036029
Rt_start: 1.766533333
Rt_end: 2.145533333
Ms1_intensity: 2564412
N_scnas: 60
Ms1_scan_range: [496, 503, 557]
Reci_snr: 0.00015795
Ms2_scan_idx: 790
Pmz_offset: 0.000767211
Entropy: 0.9976074695587158
Num Peaks: 121
42.03493118286133 677.0
43.04353713989258 300.0
44.05105972290039 23055.0
56.05005645751953 441.0
58.06612014770508 11441.0
59.04976272583008 331.0
60.080814361572266 217.0
91.0539779663086 1402.0
93.0709457397461 381.0
94.04688262939453 277.0
96.08003997802734 560.0
108.06205749511719 276.0
115.05265045166016 484.0
119.05156707763672 378.0
122.035888671875 376.0
123.0814208984375 2677.0
127.05494689941406 214.0
129.0669708251953 215.0
137.0594940185547 3863.0
139.0529327392578 440.0
140.06417846679688 549.0
141.07077026367188 578.0
142.07928466796875 180.0
143.04942321777344 334.0
144.05654907226562 210.0
145.06552124023438 208.0
150.09613037109375 1360.0
151.0759735107422 2063.0
152.06246948242188 4642.0
153.0695343017578 13139.0
154.07643127441406 367.0
155.08314514160156 492.0
157.06594848632812 219.0
159.07904052734375 270.0
161.0622100830078 493.0
164.0680694580078 220.0
165.07080078125 3176.0
166.07838439941406 293.0
167.0872344970703 1446.0
168.05909729003906 3922.0
169.06661987304688 528.0
170.07350158691406 490.0
171.0797119140625 322.0
172.05206298828125 563.0
173.05670166015625 329.0
175.0766143798828 400.0
176.06582641601562 422.0
177.07276916503906 1333.0
178.08819580078125 1228.0
179.083984375 1576.0
180.0561981201172 1398.0
181.06690979003906 27072.0
182.07289123535156 938.0
183.08164978027344 1061.0
184.05130004882812 320.0
185.10179138183594 309.0
187.07928466796875 2523.0
189.07113647460938 328.0
191.08905029296875 621.0
192.10104370117188 626.0
193.06112670898438 1271.0
194.0724639892578 236.0
195.08448791503906 7786.0
196.05001831054688 1996.0
197.05929565429688 663.0
198.06918334960938 2125.0
199.0777130126953 855.0
201.09048461914062 302.0
205.07003784179688 473.0
207.05020141601562 17348.0
208.05296325683594 1351.0
209.06219482421875 6006.0
210.08607482910156 433.0
211.07577514648438 5916.0
212.0902557373047 557.0
213.0948944091797 5784.0
214.06700134277344 261.0
215.0701141357422 347.0
219.08322143554688 226.0
221.06089782714844 327.0
223.07891845703125 12793.0
224.08399963378906 1160.0
225.0934600830078 895.0
226.06719970703125 571.0
227.06842041015625 1216.0
229.11785888671875 674.0
230.09600830078125 510.0
231.1082305908203 403.0
234.07020568847656 167.0
235.07821655273438 769.0
236.0926971435547 219.0
237.09640502929688 573.0
239.0733184814453 14793.0
240.07899475097656 516.0
241.0889434814453 5509.0
242.09884643554688 700.0
245.1258087158203 1571.0
249.08987426757812 265.0
251.07382202148438 193.0
252.0887908935547 223.0
253.0946502685547 203.0
254.1271209716797 201.0
255.1056671142578 2298.0
256.0726013183594 294.0
257.1178894042969 349.0
258.0998840332031 190.0
259.099609375 179.0
266.1012268066406 235.0
267.1048278808594 504.0
269.0900573730469 225.0
270.1500244140625 845.0
271.09881591796875 530.0
273.11041259765625 607.0
280.130859375 264.0
281.1158142089844 477.0
284.1071472167969 171.0
287.12860107421875 221.0
298.14678955078125 174.0
315.1627197265625 197.0
329.1561584472656 268.0
330.1753234863281 61347.0

Name: Sinomenine
Precursor_mz: 352.1495782
Cas: 115-53-7
Adduct: [M+Na]+
Mz: 352.1519289
Comment: Major
Smiles: COC1=C[C@@H]2[C@@H]3Cc4ccc(OC)c(O)c4[C@]2(CCN3C)CC1=O
Formula: C19H23NO4
Mix: Alkaloids-pos-mix5
Rt: [1.808]
Rt_apex: 1.824921321
Rt_start: 1.81205
Rt_end: 1.903716667
Ms1_intensity: 16354
N_scnas: 14
Ms1_scan_range: [504, 506, 519]
Reci_snr: 0.055410113
Ms2_scan_idx: 784
Pmz_offset: 0.000371272
Entropy: 1.0
Num Peaks: 2
120.04582214355469 31.0
352.1525573730469 194.0

Name: Catharanthine
Precursor_mz: 337.1904596
Cas: 2468-21-5
Adduct: [M+H]+
Mz: 337.1910545
Comment: Major
Smiles: CCC1=C[C@@H]2CN3CCc4c([nH]c5ccccc45)[C@@](C(=O)OC)(C2)[C@@H]13
Formula: C21H24N2O2
Mix: Alkaloids-pos-mix6
Rt: [2.929]
Rt_apex: 2.926867982
Rt_start: 2.837716667
Rt_end: 3.151416667
Ms1_intensity: 3909414
N_scnas: 51
Ms1_scan_range: [755, 769, 807]
Reci_snr: 0.001308151
Ms2_scan_idx: 1408
Pmz_offset: 0.000395921
Entropy: 0.9266817569732666
Num Peaks: 97
42.03390884399414 4138.0
43.03053283691406 1063.0
51.0241584777832 1103.0
59.0140266418457 13435.0
77.03919219970703 24212.0
78.0450668334961 459.0
79.05371856689453 1438.0
89.03901672363281 686.0
90.04556274414062 259.0
91.05509185791016 51228.0
93.07070922851562 205222.0
95.05093383789062 538.0
101.03482818603516 437.0
102.05014038085938 183.0
103.05485534667969 3202.0
105.07041931152344 6708.0
106.06673431396484 326.0
107.07355499267578 223.0
115.05387878417969 7522.0
116.04947662353516 870.0
117.07061767578125 11326.0
118.06268310546875 607.0
119.08802795410156 482.0
121.1010513305664 314.0
123.08112335205078 232.0
127.05464172363281 6793.0
128.05152893066406 4482.0
129.06187438964844 831.0
130.0666046142578 2769.0
131.0896759033203 810.0
132.07965087890625 239.0
133.06689453125 21704.0
136.114501953125 206.0
137.0591583251953 416.0
142.0638885498047 1275.0
143.0725860595703 14689.0
144.08316040039062 944831.0
145.06517028808594 622.0
146.09461975097656 871.0
147.08346557617188 208.0
149.0608673095703 200.0
154.06561279296875 785.0
155.06179809570312 843.0
156.08224487304688 1226.0
158.0890350341797 363.0
159.08396911621094 359.0
165.092041015625 25011.0
167.07232666015625 468.0
168.0823516845703 864.0
169.08265686035156 327.0
170.10238647460938 930.0
171.09214782714844 334.0
173.10983276367188 12533.0
180.08026123046875 1292.0
182.09896850585938 278.0
183.06602478027344 465.0
184.07562255859375 199.0
191.07113647460938 271.0
192.0850372314453 297.0
193.0899200439453 289.0
194.06614685058594 727.0
198.08847045898438 296.0
203.076904296875 239.0
204.08604431152344 3942.0
205.09165954589844 3596.0
206.0977325439453 1421.0
207.10626220703125 266.0
208.07473754882812 336.0
214.08908081054688 334.0
215.08609008789062 210.0
217.09117126464844 1159.0
218.09927368164062 6444.0
219.10971069335938 6193.0
220.11416625976562 2553.0
221.12924194335938 425.0
230.09759521484375 208.0
231.10769653320312 454.0
232.1199951171875 913.0
233.1216583251953 1703.0
234.13192749023438 3981.0
235.13575744628906 418.0
238.09303283691406 289.0
245.11865234375 203.0
246.09291076660156 370.0
247.10440063476562 600.0
248.1444854736328 5532.0
249.1513214111328 604.0
258.130859375 338.0
260.1504211425781 220.0
261.1246032714844 245.0
264.09454345703125 245.0
276.1376037597656 1104.0
277.1763000488281 697.0
280.132568359375 219.0
305.17767333984375 858.0
308.1585388183594 1151.0
337.1956787109375 32342.0

Name: Sinomenine hydrochloride
Precursor_mz: 330.1705031
Cas: 6080-33-7
Adduct: [M+H]+
Mz: 330.1699847
Comment: Major
Smiles: COC1=C[C@@H]2[C@@H]3Cc4ccc(OC)c(O)c4[C@]2(CCN3C)CC1=O
Formula: C19H23NO4
Mix: Alkaloids-pos-mix6
Rt: [1.809]
Rt_apex: 1.806330578
Rt_start: 1.758133333
Rt_end: 2.010333333
Ms1_intensity: 2701434
N_scnas: 40
Ms1_scan_range: [584, 591, 625]
Reci_snr: 0.000106331
Ms2_scan_idx: 730
Pmz_offset: 0.00127004
Entropy: 0.9947977662086487
Num Peaks: 142
42.03481674194336 535.0
43.043418884277344 572.0
44.05093765258789 36827.0
45.03620529174805 314.0
56.052005767822266 314.0
57.03334426879883 550.0
58.06596755981445 16235.0
59.050682067871094 472.0
83.05075073242188 413.0
91.05508422851562 3128.0
93.07070922851562 807.0
95.0509262084961 202.0
96.0811767578125 684.0
99.04736328125 260.0
103.05342864990234 181.0
108.06033325195312 372.0
111.04486846923828 467.0
115.05387878417969 997.0
119.05280303955078 623.0
122.03868865966797 477.0
123.08267974853516 3794.0
127.05305480957031 236.0
128.06263732910156 428.0
129.07144165039062 224.0
131.05271911621094 223.0
132.0828857421875 208.0
135.1078338623047 261.0
137.06080627441406 6118.0
139.05259704589844 936.0
140.06883239746094 718.0
141.0720977783203 897.0
142.0789337158203 196.0
143.04739379882812 237.0
144.06126403808594 418.0
145.0634765625 390.0
150.09060668945312 1772.0
151.07733154296875 3115.0
152.06382751464844 7515.0
153.0726318359375 16909.0
154.0795440673828 308.0
155.0845184326172 491.0
157.06381225585938 310.0
159.08750915527344 507.0
160.05538940429688 222.0
161.0653839111328 689.0
164.06768798828125 297.0
165.07040405273438 5106.0
166.07798767089844 287.0
167.0832061767578 1992.0
168.05870056152344 6369.0
169.06439208984375 773.0
170.07493591308594 813.0
171.0811309814453 735.0
172.04795837402344 784.0
173.0636749267578 557.0
175.07620239257812 603.0
176.06541442871094 427.0
177.0704803466797 1676.0
178.0840301513672 2093.0
179.0873260498047 2117.0
180.05764770507812 2717.0
181.06837463378906 41855.0
182.0743408203125 1606.0
183.08689880371094 1434.0
184.04896545410156 358.0
185.0956268310547 720.0
186.0706024169922 204.0
187.07691955566406 3548.0
188.08209228515625 233.0
189.0706787109375 515.0
190.0831298828125 469.0
191.08665466308594 880.0
192.05780029296875 856.0
193.06651306152344 2100.0
194.07395935058594 541.0
195.0840301513672 9635.0
196.05348205566406 3052.0
197.06080627441406 1385.0
198.07069396972656 2855.0
199.07723999023438 1513.0
201.07009887695312 509.0
205.06954956054688 900.0
206.071533203125 580.0
207.0476837158203 30129.0
208.05044555664062 1563.0
209.06170654296875 8350.0
210.07337951660156 1084.0
211.0773162841797 7631.0
212.08363342285156 966.0
213.09439086914062 9816.0
214.0582733154297 242.0
215.07373046875 434.0
216.07920837402344 346.0
217.0663604736328 193.0
218.07232666015625 317.0
219.07855224609375 396.0
221.0603790283203 546.0
222.06719970703125 298.0
223.0804901123047 18845.0
224.08767700195312 2322.0
225.09083557128906 1258.0
226.0624542236328 1199.0
227.07423400878906 1717.0
228.10311889648438 328.0
229.11732482910156 670.0
230.0933380126953 660.0
231.09701538085938 533.0
234.07394409179688 239.0
235.07981872558594 1330.0
236.09214782714844 393.0
237.09800720214844 1329.0
238.09951782226562 230.0
239.07493591308594 19961.0
240.10452270507812 852.0
241.08837890625 7555.0
242.11793518066406 1021.0
245.120849609375 2237.0
249.0915069580078 266.0
251.08212280273438 408.0
252.08152770996094 311.0
254.11758422851562 418.0
255.10507202148438 3941.0
256.072021484375 311.0
257.1285400390625 590.0
258.09027099609375 338.0
259.103515625 307.0
265.1126403808594 209.0
266.09375 236.0
267.1019287109375 819.0
269.12396240234375 549.0
270.1493835449219 1514.0
271.09588623046875 683.0
272.12042236328125 255.0
273.1144104003906 1462.0
280.1372375488281 560.0
281.126953125 838.0
284.1017761230469 410.0
287.1279296875 206.0
298.1509704589844 462.0
315.15948486328125 494.0
329.16558837890625 177.0
330.1720275878906 99600.0

Name: Sinomenine hydrochloride
Precursor_mz: 352.1504174
Cas: 6080-33-7
Adduct: [M+Na]+
Mz: 352.1519289
Comment: Major
Smiles: COC1=C[C@@H]2[C@@H]3Cc4ccc(OC)c(O)c4[C@]2(CCN3C)CC1=O
Formula: C19H23NO4
Mix: Alkaloids-pos-mix6
Rt: [1.809]
Rt_apex: 1.816574811
Rt_start: 1.755516667
Rt_end: 1.927
Ms1_intensity: 18573
N_scnas: 27
Ms1_scan_range: [583, 593, 611]
Reci_snr: 0.011747055
Ms2_scan_idx: 722
Pmz_offset: 0.000486156
Entropy: 1.0
Num Peaks: 2
311.07470703125 31.0
352.1517639160156 607.0

Name: (S)-10-Hydroxycamptothecin
Precursor_mz: 365.1133676
Cas: 19685-09-7
Adduct: [M+H]+
Mz: 365.1131981
Comment: Major
Smiles: CC[C@@]1(O)C(=O)OCc2c1cc1n(c2=O)Cc2cc3cc(O)ccc3nc2-1
Formula: C20H16N2O5
Mix: Alkaloids-pos-mix6
Rt: [2.682]
Rt_apex: 2.681619845
Rt_start: 2.63645
Rt_end: 2.898933333
Ms1_intensity: 690924
N_scnas: 40
Ms1_scan_range: [724, 731, 765]
Reci_snr: 0.000329269
Ms2_scan_idx: 1284
Pmz_offset: 0.001332705
Entropy: 0.9984295964241028
Num Peaks: 61
57.034427642822266 1593.0
182.05926513671875 209.0
183.06039428710938 220.0
184.06236267089844 7562.0
185.0689697265625 795.0
195.0723419189453 189.0
196.0791015625 505.0
197.07269287109375 2567.0
198.0767059326172 711.0
199.08721923828125 344.0
205.0836944580078 164.0
207.09017944335938 390.0
208.078857421875 417.0
209.0861358642578 639.0
210.08770751953125 727.0
219.09109497070312 296.0
220.07884216308594 1345.0
221.07716369628906 3617.0
222.08819580078125 3205.0
223.0847625732422 766.0
225.10565185546875 308.0
233.0724639892578 575.0
234.07403564453125 1002.0
235.08851623535156 14934.0
236.0965576171875 14066.0
237.10458374023438 6104.0
247.09124755859375 719.0
248.1047821044922 708.0
249.1071014404297 799.0
250.10922241210938 585.0
251.0800018310547 1521.0
252.0883026123047 243.0
259.0877990722656 368.0
260.09844970703125 658.0
261.1065673828125 483.0
262.08477783203125 1001.0
263.0876159667969 1937.0
264.0923767089844 9552.0
265.0990295410156 19634.0
274.1080017089844 187.0
275.1195983886719 1517.0
276.1050720214844 379.0
277.1273193359375 793.0
278.1070251464844 1294.0
279.07672119140625 294.0
288.0942687988281 438.0
290.0602722167969 183.0
291.1224060058594 1823.0
292.088134765625 667.0
293.1275329589844 5939.0
303.11712646484375 1111.0
305.09197998046875 635.0
306.1051330566406 497.0
307.1101379394531 483.0
308.0823059082031 503.0
309.12261962890625 236.0
319.11810302734375 2038.0
321.1267395019531 71888.0
336.0758056640625 2159.0
347.1060791015625 477.0
365.1174621582031 45935.0

Name: Arecoline hydrobromide
Precursor_mz: 156.0999196
Cas: 300-08-3
Adduct: [M+H]+
Mz: 156.1019051
Comment: Major
Smiles: COC(=O)C1=CCCN(C)C1
Formula: C8H13NO2
Mix: Alkaloids-pos-mix6
Rt: [1.802, 0.502, 0.351]
Rt_apex: 1.800233254
Rt_start: 1.771683333
Rt_end: 1.871333333
Ms1_intensity: 2655
N_scnas: 14
Ms1_scan_range: [586, 590, 601]
Reci_snr: 0.004002067
Ms2_scan_idx: 710
Pmz_offset: 0.002092378
Entropy: 1.0
Num Peaks: 1
44.01652526855469 93.0

Name: Camptothecin
Precursor_mz: 349.1189429
Cas: 3/4/89
Adduct: [M+H]+
Mz: 349.1182835
Comment: Major
Smiles: CC[C@@]1(O)C(=O)OCc2c1cc1n(c2=O)Cc2cc3ccccc3nc2-1
Formula: C20H16N2O4
Mix: Alkaloids-pos-mix6
Rt: [3.136]
Rt_apex: 3.137957348
Rt_start: 2.9856
Rt_end: 3.4024
Ms1_intensity: 1781118
N_scnas: 68
Ms1_scan_range: [780, 805, 849]
Reci_snr: 4.16e-05
Ms2_scan_idx: 1537
Pmz_offset: 0.002451994
Entropy: 0.9965009689331055
Num Peaks: 106
57.03440475463867 8076.0
65.03776550292969 93.0
95.0509262084961 646.0
107.04741668701172 195.0
114.0475845336914 389.0
115.0523681640625 556.0
123.046875 541.0
128.04835510253906 1084.0
137.05751037597656 282.0
139.05921936035156 93.0
140.0489044189453 1125.0
141.05709838867188 1156.0
142.0638885498047 872.0
143.07089233398438 949.0
144.07809448242188 232.0
151.05319213867188 353.0
152.0586395263672 236.0
154.06561279296875 278.0
165.07040405273438 191.0
166.067138671875 1281.0
167.0723114013672 1869.0
168.06961059570312 38759.0
169.07717895507812 5480.0
178.0653076171875 826.0
179.0760498046875 573.0
180.078369140625 2659.0
181.07781982421875 16708.0
182.0838165283203 2130.0
183.0906982421875 1379.0
190.06765747070312 1127.0
191.0730743408203 2153.0
192.07920837402344 2556.0
193.0860137939453 2865.0
194.091552734375 3133.0
195.08990478515625 1352.0
203.07090759277344 412.0
204.0800323486328 9881.0
205.0775909423828 33108.0
206.08966064453125 25689.0
207.09413146972656 3788.0
208.10914611816406 590.0
209.10836791992188 1472.0
216.07508850097656 761.0
217.0849609375 5109.0
218.0868377685547 12012.0
219.0930938720703 154001.0
220.09957885742188 108520.0
221.10838317871094 41980.0
222.0818328857422 381.0
223.1182098388672 416.0
229.07696533203125 457.0
230.08908081054688 1382.0
231.0906219482422 4312.0
232.1050262451172 5636.0
233.10452270507812 3580.0
234.11474609375 2519.0
235.08627319335938 10636.0
236.09214782714844 2009.0
241.09274291992188 326.0
242.09609985351562 916.0
243.09715270996094 2082.0
244.1024627685547 4568.0
245.107666015625 2180.0
246.07969665527344 6110.0
247.08895874023438 12568.0
248.0980682373047 55030.0
249.10479736328125 90239.0
250.12466430664062 523.0
251.11326599121094 487.0
256.0989685058594 254.0
257.10601806640625 1122.0
258.1195983886719 633.0
259.12158203125 8107.0
260.1028747558594 2072.0
261.1019287109375 5341.0
262.1119689941406 5083.0
263.0829772949219 2277.0
264.09454345703125 1189.0
265.1331787109375 199.0
269.10784912109375 189.0
270.0848083496094 189.0
271.08203125 406.0
272.0926513671875 1704.0
273.0981750488281 296.0
274.07305908203125 1230.0
275.1171569824219 7254.0
276.083984375 2146.0
277.1342468261719 32018.0
285.1031799316406 560.0
287.12078857421875 4465.0
288.0965576171875 802.0
289.0978088378906 2788.0
290.1055908203125 1829.0
291.11273193359375 3565.0
292.08563232421875 2003.0
293.12982177734375 1274.0
302.07464599609375 404.0
303.11456298828125 8307.0
305.1310729980469 416966.0
316.08441162109375 296.0
319.0703430175781 869.0
320.0838623046875 11557.0
321.12408447265625 1242.0
331.1110534667969 1506.0
348.04779052734375 645.0
349.12200927734375 219304.0

Name: Camptothecin
Precursor_mz: 371.0955625
Cas: 3/4/89
Adduct: [M+Na]+
Mz: 371.1002277
Comment: Major
Smiles: CC[C@@]1(O)C(=O)OCc2c1cc1n(c2=O)Cc2cc3ccccc3nc2-1
Formula: C20H16N2O4
Mix: Alkaloids-pos-mix6
Rt: [3.136]
Rt_apex: 3.130833443
Rt_start: 3.08925
Rt_end: 3.2549
Ms1_intensity: 12710
N_scnas: 26
Ms1_scan_range: [795, 804, 822]
Reci_snr: 0.013656318
Ms2_scan_idx: 1542
Pmz_offset: 0.00228188
Entropy: 1.0
Num Peaks: 2
101.06163024902344 123.0
111.04634857177734 93.0

Name: Harmaline
Precursor_mz: 215.1172097
Cas: 304-21-2
Adduct: [M+H]+
Mz: 215.1178895
Comment: Major
Smiles: COc1ccc2c(c1)=NC1=C(C)NCCC=21
Formula: C13H14N2O
Mix: Alkaloids-pos-mix6
Rt: [2.38]
Rt_apex: 2.380827255
Rt_start: 2.3453
Rt_end: 2.834766667
Ms1_intensity: 4287479
N_scnas: 74
Ms1_scan_range: [679, 686, 754]
Reci_snr: 0.001148903
Ms2_scan_idx: 1049
Pmz_offset: 5.49e-05
Entropy: 0.9966673254966736
Num Peaks: 76
41.037288665771484 371.0
42.0339241027832 16722.0
56.049930572509766 701.0
68.04940032958984 22038.0
77.03799438476562 2303.0
78.0413818359375 893.0
81.0563735961914 191.0
88.03158569335938 201.0
89.03905487060547 1905.0
90.04826354980469 585.0
91.05513000488281 1709.0
93.061279296875 531.0
94.06574249267578 628.0
101.03910827636719 270.0
102.04734802246094 1369.0
103.05490112304688 5928.0
104.04878997802734 1371.0
105.0604019165039 352.0
107.0460205078125 253.0
114.04313659667969 162.0
115.05242156982422 7272.0
116.05103302001953 2435.0
117.0600357055664 4544.0
118.06425476074219 1122.0
119.0697021484375 259.0
120.07941436767578 397.0
127.05311584472656 2830.0
128.0484161376953 2712.0
129.05874633789062 5217.0
130.06504821777344 63064.0
131.07366943359375 107880.0
132.0845489501953 758.0
133.05076599121094 548.0
139.05596923828125 386.0
140.04896545410156 1913.0
141.05882263183594 1389.0
142.0656280517578 7292.0
143.07264709472656 28488.0
144.07984924316406 18710.0
145.0855255126953 3352.0
146.0963897705078 1403.0
147.0818328857422 934.0
148.07228088378906 412.0
153.0570831298828 253.0
154.06568908691406 13463.0
155.07235717773438 14018.0
156.0682830810547 11745.0
157.07794189453125 34130.0
158.06088256835938 8737.0
159.0698699951172 55645.0
160.07498168945312 1209.0
166.0635986328125 637.0
167.07420349121094 6698.0
168.0751495361328 310.0
169.07542419433594 2919.0
170.08416748046875 5659.0
171.09222412109375 169313.0
172.09959411621094 312175.0
173.0840606689453 3733.0
174.09170532226562 235795.0
182.0592803955078 1309.0
183.07180786132812 7685.0
184.0642852783203 1950.0
185.0727996826172 24435.0
186.09365844726562 1535.0
187.12306213378906 394.0
188.10336303710938 929.0
197.07664489746094 488.0
198.09251403808594 18945.0
199.0872344970703 28142.0
200.0943603515625 307532.0
213.1006317138672 880.0
214.10971069335938 268.0
214.46304321289062 1098.0
215.11911010742188 407554.0
215.99267578125 181.0

Name: Vinpocetine
Precursor_mz: 351.2067175
Cas: 42971-09-5
Adduct: [M+H]+
Mz: 351.2067045
Comment: Major
Smiles: CCOC(=O)C1=C[C@]2(CC)CCCN3CCc4c(n1c1ccccc41)[C@@H]32
Formula: C22H26N2O2
Mix: Alkaloids-pos-mix6
Rt: [3.49]
Rt_apex: 3.484995276
Rt_start: 3.426733333
Rt_end: 4.021933333
Ms1_intensity: 8054713
N_scnas: 106
Ms1_scan_range: [853, 863, 960]
Reci_snr: 2.33e-05
Ms2_scan_idx: 1743
Pmz_offset: 0.000851375
Entropy: 0.9925512671470642
Num Peaks: 206
41.03822326660156 486.0
42.03396224975586 582.0
44.04913330078125 9856.0
56.04998016357422 5694.0
58.064971923828125 2752.0
68.0494613647461 645.0
70.0656967163086 3338.0
77.03559875488281 400.0
79.05257415771484 575.0
80.047607421875 382.0
82.06397247314453 548.0
84.07710266113281 1087.0
91.05654907226562 7243.0
93.0694808959961 646.0
94.06990814208984 257.0
96.08405303955078 608.0
98.10008239746094 1224.0
103.0535659790039 1058.0
104.0503158569336 185.0
105.06912231445312 1733.0
106.06398010253906 544.0
107.0838623046875 617.0
108.08381652832031 687.0
110.09619903564453 1548.0
112.10931396484375 2535.0
115.05252075195312 2298.0
116.05265045166016 299.0
117.06924438476562 1127.0
118.06436157226562 862.0
119.08512115478516 585.0
120.08258819580078 914.0
121.08885955810547 265.0
122.09622192382812 731.0
124.11095428466797 202.0
127.05322265625 453.0
128.06121826171875 734.0
129.0716094970703 1126.0
130.06517028808594 2348.0
131.06895446777344 576.0
132.079833984375 1255.0
133.08648681640625 390.0
134.09535217285156 1369.0
135.10311889648438 1066.0
136.10975646972656 709.0
140.05239868164062 237.0
141.06561279296875 540.0
142.06239318847656 701.0
143.07276916503906 827.0
144.0816650390625 9649.0
145.0856475830078 583.0
146.0965118408203 1024.0
147.08705139160156 280.0
148.1099853515625 778.0
150.04440307617188 180.0
151.05511474609375 292.0
152.06402587890625 906.0
153.0728302001953 682.0
154.06581115722656 768.0
155.07598876953125 396.0
156.0789337158203 1673.0
157.08335876464844 487.0
158.0980682373047 2342.0
159.09124755859375 262.0
160.11773681640625 338.0
161.10833740234375 619.0
162.0894775390625 657.0
163.0700225830078 343.0
164.06430053710938 182.0
165.07061767578125 4266.0
166.0691680908203 1264.0
167.07435607910156 3011.0
168.0789337158203 1777.0
169.0792236328125 467.0
170.0971221923828 826.0
171.09603881835938 702.0
172.11077880859375 430.0
173.10821533203125 476.0
174.0937042236328 800.0
176.06378173828125 393.0
177.06324768066406 572.0
178.07676696777344 6811.0
179.08755493164062 5418.0
180.08425903320312 7204.0
181.09127807617188 6554.0
182.0954132080078 2590.0
183.0909423828125 699.0
184.10252380371094 751.0
185.10733032226562 1025.0
186.12445068359375 790.0
188.06887817382812 708.0
189.0651397705078 535.0
190.06597900390625 2350.0
191.07333374023438 13322.0
192.08529663085938 17299.0
193.0921173095703 25409.0
194.09767150878906 11848.0
195.1038818359375 4123.0
196.10482788085938 1496.0
197.11622619628906 191.0
198.05712890625 497.0
200.07467651367188 253.0
202.07652282714844 1169.0
203.0811767578125 1218.0
204.08230590820312 34347.0
205.0899200439453 39353.0
206.09799194335938 74564.0
207.1065216064453 41784.0
208.11346435546875 52560.0
209.1228485107422 20210.0
210.12451171875 3692.0
211.12245178222656 341.0
212.14114379882812 588.0
214.08114624023438 282.0
215.0843048095703 743.0
216.08981323242188 1324.0
217.08938598632812 8761.0
218.0974884033203 27177.0
219.103759765625 49654.0
220.11236572265625 64661.0
221.1190948486328 31639.0
222.12814331054688 106182.0
223.13528442382812 5053.0
224.07327270507812 9084.0
225.08059692382812 6466.0
226.09017944335938 1514.0
228.09494018554688 455.0
229.09213256835938 279.0
230.097900390625 2130.0
231.10372924804688 3605.0
232.11175537109375 17735.0
233.11553955078125 10948.0
234.1279296875 92820.0
235.1339111328125 22589.0
236.14205932617188 65661.0
237.08103942871094 20564.0
238.08900451660156 22497.0
239.0947723388672 11850.0
240.10049438476562 1768.0
242.11607360839844 182.0
243.09747314453125 248.0
244.11155700683594 706.0
245.1189727783203 1258.0
246.12625122070312 5297.0
247.12237548828125 5619.0
248.140380859375 32121.0
249.14056396484375 19025.0
250.08726501464844 65877.0
251.09579467773438 105823.0
252.10414123535156 101274.0
253.1122589111328 69394.0
254.12240600585938 22194.0
256.12847900390625 257.0
257.1041259765625 240.0
258.1357116699219 434.0
259.15582275390625 409.0
260.146240234375 3834.0
261.1544189453125 1231.0
262.1191101074219 4937.0
263.0946960449219 1430.0
264.10400390625 56196.0
265.1106872558594 81008.0
266.1192932128906 666032.0
267.12750244140625 10202.0
268.13531494140625 4157.0
274.1268615722656 1307.0
275.1175231933594 3420.0
276.1053161621094 15182.0
277.1626281738281 19520.0
278.1189880371094 64551.0
279.1308898925781 31956.0
280.13525390625 784668.0
281.14141845703125 33478.0
282.1517639160156 50880.0
284.166015625 444.0
287.152099609375 392.0
288.1445617675781 543.0
289.1411437988281 296.0
290.1131286621094 1146.0
291.12030029296875 1153.0
292.13397216796875 16139.0
293.135009765625 34199.0
294.1498107910156 427693.0
295.14947509765625 4845.0
296.1701354980469 8761.0
304.1346130371094 3395.0
305.1510925292969 9613.0
306.1520690917969 45692.0
307.15716552734375 9630.0
308.1663513183594 293074.0
309.1697692871094 352.0
319.156005859375 220.0
320.1696472167969 6219.0
321.1622314453125 40570.0
322.1790466308594 251096.0
323.1772766113281 148412.0
324.197265625 17772.0
334.18023681640625 4561.0
350.13006591796875 5012.0
351.2101135253906 935667.0
352.37347412109375 1285.0
352.6211242675781 940.0
352.7265625 293.0
353.0112609863281 221.0
353.11407470703125 215.0
353.52557373046875 176.0
354.18817138671875 194.0

Name: Quinine
Precursor_mz: 325.1909263
Cas: 130-95-0
Adduct: [M+H]+
Mz: 325.1910545
Comment: Major
Smiles: C=C[C@H]1C[N@@]2CC[C@H]1C[C@H]2[C@H](O)c1ccnc2ccc(OC)cc12
Formula: C20H24N2O2
Mix: Alkaloids-pos-mix6
Rt: [2.074]
Rt_apex: 2.074705328
Rt_start: 1.981833333
Rt_end: 2.4003
Ms1_intensity: 1098586
N_scnas: 69
Ms1_scan_range: [619, 636, 689]
Reci_snr: 0.001529313
Ms2_scan_idx: 858
Pmz_offset: 0.000526983
Entropy: 0.9833425879478455
Num Peaks: 171
41.03907012939453 3218.0
42.03481674194336 1158.0
44.05000686645508 3708.0
53.040470123291016 1731.0
55.05419158935547 2352.0
56.05095672607422 1030.0
57.056663513183594 209.0
58.06596755981445 174.0
65.03776550292969 813.0
66.04660034179688 228.0
67.05401611328125 3835.0
68.04936981201172 1012.0
69.0578842163086 725.0
70.0644302368164 792.0
77.03919219970703 3624.0
79.05496978759766 21566.0
80.05001831054688 5934.0
81.07023620605469 20528.0
82.06640625 6224.0
84.08085632324219 1010.0
89.03504180908203 206.0
90.04822540283203 173.0
91.05374908447266 3345.0
93.06800079345703 1820.0
94.06298065185547 3366.0
95.07418823242188 2567.0
96.07843017578125 2015.0
103.05058288574219 291.0
105.06897735595703 1875.0
106.0652847290039 1509.0
107.08081817626953 818.0
108.07929992675781 5327.0
109.0882797241211 542.0
110.0945816040039 5711.0
115.05387878417969 1487.0
116.05249786376953 278.0
117.05846405029297 5216.0
118.06420135498047 367.0
119.08342742919922 341.0
120.08089447021484 1380.0
121.08715057373047 479.0
122.09605407714844 2546.0
124.11079406738281 1365.0
125.08196258544922 219.0
129.05709838867188 481.0
130.06500244140625 1031.0
131.06878662109375 1133.0
132.07965087890625 439.0
134.09841918945312 3607.0
135.1029510498047 461.0
136.11122131347656 4965.0
137.11830139160156 234.0
138.1258087158203 2127.0
141.05209350585938 503.0
142.0638885498047 1116.0
143.075927734375 2063.0
144.076416015625 806.0
145.04995727539062 4566.0
146.0590057373047 921.0
147.06983947753906 402.0
148.1080780029297 304.0
154.06387329101562 2648.0
155.07228088378906 2843.0
156.083984375 645.0
157.05149841308594 638.0
158.05728149414062 3688.0
159.0680389404297 1834.0
160.07669067382812 60576.0
161.08319091796875 183.0
162.08926391601562 1734.0
166.1195831298828 6075.0
167.07594299316406 2004.0
168.0823516845703 897.0
169.05345153808594 2402.0
170.05662536621094 1491.0
171.0646209716797 958.0
172.07557678222656 24263.0
173.08213806152344 6757.0
174.0916290283203 3674.0
176.0709991455078 514.0
179.0760498046875 178.0
180.078369140625 666.0
181.08914184570312 485.0
182.06109619140625 1466.0
183.0679168701172 3287.0
184.0775146484375 17129.0
185.08416748046875 902.0
186.09165954589844 10931.0
187.0980224609375 234.0
188.07440185546875 3405.0
189.08226013183594 4375.0
190.0889434814453 467.0
191.07113647460938 183.0
192.07920837402344 403.0
193.08407592773438 647.0
194.085693359375 351.0
195.06442260742188 721.0
196.07510375976562 1967.0
197.08050537109375 2148.0
198.09242248535156 9537.0
199.08714294433594 1364.0
200.0664825439453 920.0
202.0882110595703 2475.0
204.0800323486328 811.0
205.08563232421875 444.0
206.0997314453125 468.0
207.10423278808594 482.0
208.09902954101562 569.0
209.0880889892578 480.0
210.09576416015625 3701.0
211.0997314453125 1451.0
212.10610961914062 1605.0
213.09849548339844 842.0
214.08497619628906 1474.0
215.10047912597656 249.0
216.10189819335938 409.0
217.08290100097656 358.0
218.09097290039062 463.0
219.0930938720703 558.0
220.072509765625 685.0
221.11463928222656 702.0
222.08810424804688 694.0
223.10354614257812 885.0
224.1107940673828 2341.0
225.10134887695312 1144.0
226.12576293945312 2387.0
227.12075805664062 1976.0
232.11572265625 254.0
233.1216583251953 475.0
234.08682250976562 711.0
235.09487915039062 804.0
236.10939025878906 1626.0
237.1001739501953 1144.0
238.1190185546875 1193.0
239.12266540527344 813.0
240.13714599609375 530.0
242.11575317382812 398.0
245.125244140625 208.0
247.13307189941406 298.0
248.11354064941406 897.0
249.1136474609375 774.0
250.12245178222656 1334.0
251.115478515625 5165.0
252.12831115722656 2754.0
253.13201904296875 10046.0
254.15785217285156 713.0
260.107421875 309.0
261.1087341308594 213.0
262.1255798339844 527.0
263.12847900390625 591.0
264.13787841796875 4499.0
265.1354675292969 1694.0
266.15557861328125 839.0
268.17864990234375 297.0
275.1544189453125 184.0
276.1329345703125 311.0
277.1412353515625 583.0
278.1537170410156 1880.0
279.1492919921875 3861.0
280.17718505859375 352.0
281.1645812988281 386.0
282.1513977050781 1702.0
290.1581726074219 246.0
291.1510314941406 350.0
292.15277099609375 324.0
295.180419921875 272.0
297.197021484375 798.0
305.1702880859375 249.0
307.1838073730469 24885.0
324.18170166015625 487.0
325.1931457519531 156200.0

Name: Ethosuximide
Precursor_mz: 142.0851894
Cas: 77-67-8
Adduct: [M+H]+
Mz: 142.0862551
Comment: Major
Smiles: CCC1(C)CC(=O)NC1=O
Formula: C7H11NO2
Mix: Alkaloids-pos-mix6
Rt: [1.969, 0.302]
Rt_apex: 1.969876594
Rt_start: 1.927
Rt_end: 2.05965
Ms1_intensity: 39204
N_scnas: 22
Ms1_scan_range: [611, 617, 634]
Reci_snr: 0.00103098
Ms2_scan_idx: 799
Pmz_offset: 8.77e-05
Entropy: 0.9405014514923096
Num Peaks: 14
41.03907775878906 678.0
42.035736083984375 93.0
43.05447769165039 1000.0
44.01369857788086 1399.0
45.03527069091797 31.0
55.0562858581543 204.0
57.060916900634766 62.0
69.07306671142578 154.0
71.09009552001953 93.0
72.08506774902344 123.0
96.0853271484375 31.0
97.06584167480469 62.0
114.09407043457031 31.0
142.09402465820312 62.0

Name: Cepharanthine
Precursor_mz: 607.27947
Cas: 481-49-2
Adduct: [M+H]+
Mz: 607.2802634
Comment: Major
Smiles: COc1ccc2cc1Oc1ccc(cc1)C[C@H]1c3c(cc4c(c3Oc3cc5c(cc3OC)CCN(C)[C@@H]5C2)OCO4)CCN1C
Formula: C37H38N2O6
Mix: Alkaloids-pos-mix6
Rt: [2.569]
Rt_apex: 2.563758212
Rt_start: 2.5233
Rt_end: 2.925933333
Ms1_intensity: 823439
N_scnas: 61
Ms1_scan_range: [707, 713, 769]
Reci_snr: 0.006984875
Ms2_scan_idx: 1165
Pmz_offset: 0.000489352
Entropy: 0.8250331878662109
Num Peaks: 117
44.04913330078125 876.0
58.0660400390625 405.0
91.05386352539062 220.0
121.0610580444336 314.0
135.0786590576172 350.0
146.09820556640625 222.0
147.08535766601562 195.0
159.078857421875 503.0
160.08399963378906 255.0
162.0876922607422 287.0
171.08502197265625 274.0
174.08999633789062 2190.0
175.10427856445312 470.0
176.104736328125 723.0
188.07080078125 333.0
189.0747833251953 610.0
190.08724975585938 469.0
191.09271240234375 273.0
195.07839965820312 294.0
203.09716796875 430.0
204.06625366210938 238.0
206.0818634033203 531.0
211.07554626464844 264.0
213.09466552734375 913.0
218.0850372314453 337.0
225.08900451660156 295.0
227.1062469482422 1527.0
235.0736541748047 184.0
237.09182739257812 285.0
239.1077880859375 403.0
241.12791442871094 633.0
248.08511352539062 260.0
249.0984649658203 323.0
251.10690307617188 378.0
252.113037109375 296.0
253.13233947753906 396.0
263.1037902832031 344.0
264.0834655761719 992.0
265.0901184082031 564.0
266.1307373046875 247.0
267.1068420410156 278.0
279.060546875 223.0
280.1070556640625 177.0
281.0849609375 356.0
293.07733154296875 177.0
294.15460205078125 226.0
306.1127624511719 268.0
307.1202392578125 235.0
308.12445068359375 289.0
318.1214599609375 287.0
319.1334228515625 411.0
320.1369934082031 256.0
322.1085205078125 185.0
324.1189270019531 218.0
333.1138916015625 242.0
334.1083984375 395.0
336.1224060058594 177.0
338.1424865722656 425.0
339.15478515625 233.0
347.1325378417969 240.0
348.1398620605469 456.0
349.14605712890625 406.0
350.1326599121094 249.0
357.14959716796875 273.0
359.1520080566406 273.0
363.17901611328125 236.0
365.15533447265625 5555.0
367.1612243652344 329.0
369.1483459472656 169.0
371.1624450683594 487.0
372.1363525390625 394.0
373.1901550292969 223.0
379.17254638671875 356.0
380.17333984375 465.0
384.1566467285156 445.0
385.1667175292969 358.0
386.17535400390625 195.0
393.1810302734375 203.0
399.14990234375 226.0
400.19354248046875 1016.0
402.2088928222656 488.0
414.1588439941406 195.0
427.1475830078125 207.0
440.1866760253906 269.0
469.1997375488281 205.0
470.203369140625 304.0
475.1917419433594 179.0
491.1914978027344 182.0
501.1660461425781 175.0
503.1880798339844 400.0
517.1914672851562 179.0
518.1908569335938 181.0
521.19482421875 358.0
530.2037963867188 251.0
531.1865234375 167.0
532.2252197265625 412.0
533.1904296875 2179.0
534.2310791015625 392.0
535.2110595703125 181.0
544.2219848632812 544.0
545.1914672851562 1216.0
546.2371826171875 804.0
547.2084350585938 717.0
548.2002563476562 292.0
549.2357177734375 178.0
550.219482421875 364.0
559.2192993164062 203.0
560.1986694335938 306.0
561.20556640625 344.0
562.2265625 332.0
564.2381591796875 14617.0
575.2548828125 924.0
576.2448120117188 13222.0
577.2625732421875 1068.0
578.2610473632812 1417.0
591.2509155273438 718.0
607.2830200195312 239903.0

Name: Cepharanthine
Precursor_mz: 629.2579487
Cas: 481-49-2
Adduct: [M+Na]+
Mz: 629.2622077
Comment: Major
Smiles: COc1ccc2cc1Oc1ccc(cc1)C[C@H]1c3c(cc4c(c3Oc3cc5c(cc3OC)CCN(C)[C@@H]5C2)OCO4)CCN1C
Formula: C37H38N2O6
Mix: Alkaloids-pos-mix6
Rt: [2.569]
Rt_apex: 2.574274634
Rt_start: 2.530283333
Rt_end: 2.671116667
Ms1_intensity: 6482
N_scnas: 20
Ms1_scan_range: [708, 715, 729]
Reci_snr: 0.008398234
Ms2_scan_idx: 1167
Pmz_offset: 0.000237163
Entropy: 0.9999999403953552
Num Peaks: 5
365.14996337890625 93.0
366.16162109375 93.0
565.2252807617188 154.0
599.2521362304688 267.0
629.27197265625 705.0

Name: Piperine
Precursor_mz: 286.1444034
Cas: 94-62-2
Adduct: [M+H]+
Mz: 286.1437699
Comment: Major
Smiles: O=C(/C=C/C=C/c1ccc2c(c1)OCO2)N1CCCCC1
Formula: C17H19NO3
Mix: Alkaloids-pos-mix7
Rt: [4.355, 4.452]
Rt_apex: 4.351292198
Rt_start: 4.30055
Rt_end: 4.42005
Ms1_intensity: 3027581
N_scnas: 17
Ms1_scan_range: [846, 853, 864]
Reci_snr: 0.002191431
Ms2_scan_idx: 2110
Pmz_offset: 0.002171949
Entropy: 0.9935683012008667
Num Peaks: 51
41.03917694091797 13165.0
51.023292541503906 953.0
55.019989013671875 893.0
56.04901123046875 292.0
65.04020690917969 595.0
67.05650329589844 321.0
69.07207489013672 19573.0
70.06932830810547 409.0
77.0381851196289 6258.0
79.0551986694336 3301.0
80.05024719238281 656.0
81.0578384399414 1079.0
84.08367156982422 5129.0
86.09654235839844 5407.0
89.04060363769531 5715.0
91.05669403076172 1387.0
94.06462097167969 512.0
98.09468078613281 237.0
103.05374145507812 7065.0
105.03477478027344 3570.0
109.05050659179688 416.0
112.07682037353516 12142.0
114.04492950439453 254.0
115.05573272705078 492521.0
116.06343078613281 332.0
117.06945037841797 6014.0
122.09642791748047 1840.0
127.05502319335938 3861.0
128.0630340576172 231.0
129.0686492919922 503.0
131.04830932617188 1645.0
134.09396362304688 1115.0
135.04627990722656 140253.0
136.07398986816406 332.0
143.05120849609375 153227.0
144.05833435058594 382.0
145.0656280517578 1398.0
150.08937072753906 2672.0
151.10023498535156 6895.0
155.06053161621094 688.0
157.10475158691406 527.0
159.04730224609375 19088.0
161.0587615966797 339.0
171.0449676513672 75607.0
172.05035400390625 403.0
173.0623779296875 21309.0
185.09812927246094 1315.0
201.05682373046875 321447.0
215.10940551757812 693.0
218.11447143554688 586.0
286.14764404296875 29573.0

Name: Piperine
Precursor_mz: 286.1444963
Cas: 94-62-2
Adduct: [M+H]+
Mz: 286.1437699
Comment: isomer
Smiles: O=C(/C=C/C=C/c1ccc2c(c1)OCO2)N1CCCCC1
Formula: C17H19NO3
Mix: Alkaloids-pos-mix7
Rt: [4.355, 4.452]
Rt_apex: 4.45009279
Rt_start: 4.42005
Rt_end: 4.55965
Ms1_intensity: 1046996
N_scnas: 23
Ms1_scan_range: [864, 869, 888]
Reci_snr: 0.004956773
Ms2_scan_idx: 2201
Pmz_offset: 0.002264903
Entropy: 0.998545229434967
Num Peaks: 46
41.0400390625 8775.0
51.02324676513672 545.0
55.01785659790039 376.0
67.05414581298828 221.0
69.07084655761719 8644.0
70.0704345703125 255.0
77.03811645507812 4415.0
79.0563735961914 1935.0
80.05142974853516 419.0
81.05523681640625 786.0
84.08231353759766 2883.0
86.09516143798828 2321.0
89.03787231445312 3584.0
91.05259704589844 925.0
94.06317138671875 493.0
103.05364227294922 4316.0
105.03468322753906 1916.0
109.04894256591797 283.0
112.07820129394531 3994.0
115.05562591552734 295033.0
117.07086181640625 3466.0
122.09786987304688 1037.0
127.0549087524414 2307.0
128.06451416015625 220.0
129.0733184814453 240.0
131.04978942871094 1064.0
134.095458984375 713.0
135.04452514648438 74089.0
143.0510711669922 74850.0
144.0565185546875 187.0
145.06887817382812 839.0
150.0978240966797 1049.0
151.10009765625 4336.0
155.06564331054688 767.0
157.1046142578125 282.0
159.04537963867188 9767.0
161.06039428710938 269.0
171.04481506347656 36521.0
172.05203247070312 265.0
173.0622100830078 10043.0
185.09986877441406 799.0
201.05862426757812 135581.0
215.10922241210938 318.0
218.11842346191406 607.0
258.1517639160156 324.0
286.14739990234375 8490.0

Name: Cordycepin
Precursor_mz: 252.1091355
Cas: 73-03-0
Adduct: [M+H]+
Mz: 252.1091158
Comment: Major
Smiles: Nc1ncnc2c1ncn2[C@@H]1O[C@H](CO)C[C@H]1O
Formula: C10H13N5O3
Mix: Alkaloids-pos-mix7
Rt: [0.616]
Rt_apex: 0.621986254
Rt_start: 0.54175
Rt_end: 0.9232
Ms1_intensity: 398188
N_scnas: 97
Ms1_scan_range: [157, 169, 255]
Reci_snr: 0.00027734
Ms2_scan_idx: 281
Pmz_offset: 0.00193548
Entropy: 0.9743450284004211
Num Peaks: 22
40.01882553100586 62.0
41.03994369506836 422.0
43.01853561401367 232.0
53.03839874267578 898.0
55.0312614440918 104.0
57.03331756591797 213.0
65.0128402709961 164.0
67.02985382080078 299.0
69.03570556640625 2208.0
71.05101013183594 324.0
73.02574157714844 46.0
77.0108413696289 77.0
81.0335693359375 77.0
82.03841400146484 149.0
92.02578735351562 2133.0
94.04117584228516 4459.0
99.04454803466797 266.0
109.0501480102539 1079.0
119.03594207763672 29322.0
136.063720703125 253405.0
137.05091857910156 299.0
252.1060333251953 106.0

Name: Tetrandrine
Precursor_mz: 623.311807
Cas: 518-34-3
Adduct: [M+H]+
Mz: 623.3115635
Comment: Major
Smiles: COc1ccc2cc1Oc1ccc(cc1)C[C@H]1c3cc(c(OC)cc3CCN1C)Oc1c(OC)c(OC)cc3c1[C@H](C2)N(C)CC3
Formula: C38H42N2O6
Mix: Alkaloids-pos-mix7
Rt: [2.604]
Rt_apex: 2.608088774
Rt_start: 2.561183333
Rt_end: 2.746666667
Ms1_intensity: 673594
N_scnas: 28
Ms1_scan_range: [570, 578, 599]
Reci_snr: 0.004337054
Ms2_scan_idx: 1132
Pmz_offset: 0.002343914
Entropy: 0.913034200668335
Num Peaks: 90
58.063819885253906 175.0
121.06709289550781 309.0
137.06246948242188 265.0
143.05078125 223.0
145.09056091308594 189.0
146.09803771972656 822.0
151.0756378173828 577.0
160.0731658935547 195.0
162.0893096923828 964.0
174.09165954589844 4468.0
175.09666442871094 534.0
176.10641479492188 1691.0
178.09156799316406 205.0
187.09999084472656 198.0
188.10523986816406 431.0
189.08616638183594 245.0
190.08705139160156 1369.0
191.09446716308594 2507.0
192.1025848388672 1873.0
193.10751342773438 177.0
204.10214233398438 659.0
206.1199493408203 188.0
213.0862579345703 247.0
218.12420654296875 309.0
219.1222381591797 202.0
227.10813903808594 490.0
235.0798797607422 179.0
239.1032257080078 428.0
250.0959014892578 260.0
251.11111450195312 345.0
253.11424255371094 218.0
265.1218566894531 229.0
267.10430908203125 296.0
279.0978088378906 174.0
281.1199951171875 252.0
294.1254577636719 643.0
297.11004638671875 184.0
299.1356506347656 198.0
310.11279296875 289.0
320.1366882324219 214.0
322.14349365234375 225.0
334.1491394042969 184.0
335.1426086425781 248.0
338.1421813964844 220.0
340.14501953125 391.0
350.1402282714844 386.0
363.170654296875 611.0
364.1795654296875 287.0
365.1711120605469 397.0
366.1693420410156 242.0
381.1860656738281 18637.0
383.1914978027344 188.0
384.1783142089844 193.0
387.1518859863281 227.0
389.1922912597656 213.0
396.2084045410156 1184.0
399.1607666015625 488.0
400.1903991699219 643.0
401.1847839355469 277.0
413.1680908203125 191.0
414.2041931152344 168.0
432.2173767089844 285.0
486.23370361328125 398.0
517.203857421875 227.0
518.2095947265625 178.0
519.2131958007812 178.0
530.2162475585938 182.0
534.2047119140625 337.0
537.2156372070312 214.0
546.230224609375 393.0
548.2359619140625 708.0
549.2385864257812 1107.0
550.258544921875 199.0
551.2498779296875 177.0
560.248046875 1258.0
561.2383422851562 738.0
562.2161865234375 600.0
563.2314453125 279.0
564.2510375976562 246.0
565.2515258789062 474.0
576.240966796875 707.0
577.2587890625 550.0
578.2538452148438 242.0
580.2701416015625 8537.0
591.2879638671875 1037.0
592.2711181640625 9957.0
593.285888671875 298.0
594.2980346679688 607.0
607.279052734375 390.0
623.3153076171875 214120.0

Name: L-(R,S)-Tetrahydropalmatine
Precursor_mz: 356.1857195
Cas: 10097-84-4
Adduct: [M+H]+
Mz: 356.1856347
Comment: Major
Smiles: COc1cc2c(cc1OC)C1Cc3ccc(OC)c(OC)c3CN1CC2
Formula: C21H25NO4
Mix: Alkaloids-pos-mix7
Rt: [2.717]
Rt_apex: 2.71580581
Rt_start: 2.673333333
Rt_end: 2.939816667
Ms1_intensity: 3641863
N_scnas: 39
Ms1_scan_range: [588, 594, 628]
Reci_snr: 2.94e-05
Ms2_scan_idx: 1220
Pmz_offset: 0.001394083
Entropy: 0.943053126335144
Num Peaks: 142
44.04902267456055 207.0
77.03789520263672 2058.0
78.04375457763672 285.0
79.05489349365234 2858.0
89.03761291503906 512.0
90.04681396484375 564.0
91.05233001708984 3839.0
92.05938720703125 659.0
93.06792449951172 485.0
102.04863739013672 713.0
103.05477142333984 6439.0
104.06440734863281 930.0
105.0703353881836 10427.0
107.04878997802734 3863.0
108.05733489990234 469.0
109.06327819824219 321.0
115.05529022216797 549.0
116.05240631103516 177.0
117.05534362792969 687.0
118.06563568115234 2002.0
119.04965209960938 1563.0
120.0608139038086 1607.0
121.06390380859375 4280.0
122.07270812988281 817.0
124.05130004882812 440.0
127.0545425415039 196.0
128.0609588623047 228.0
129.0570068359375 199.0
130.0648956298828 4441.0
131.07350158691406 33023.0
132.05697631835938 639.0
133.06517028808594 7274.0
134.07395935058594 8049.0
135.0441436767578 6384.0
136.0538330078125 1207.0
137.06399536132812 415.0
138.0679931640625 196.0
139.0789794921875 536.0
144.0561065673828 278.0
145.0616912841797 447.0
146.06399536132812 2789.0
147.0697479248047 5689.0
148.07723999023438 56791.0
149.05905151367188 1696.0
150.06988525390625 55104.0
151.07723999023438 7067.0
158.06776428222656 1230.0
159.06793212890625 15823.0
160.0765838623047 6456.0
161.08663940429688 2430.0
162.0570068359375 524.0
163.0750732421875 516.0
164.0873565673828 504.0
165.09373474121094 129619.0
171.07000732421875 208.0
174.06004333496094 3579.0
175.06680297851562 1501.0
176.07461547851562 110630.0
177.08157348632812 102498.0
178.07643127441406 324.0
179.10598754882812 406.0
180.09332275390625 183.0
188.0704345703125 253.0
189.08985900878906 2744.0
190.09075927734375 16312.0
191.0962371826172 849.0
192.10630798339844 1033160.0
193.15025329589844 557.0
202.0861053466797 298.0
203.1007843017578 385.0
204.1039581298828 3798.0
205.1136474609375 3854.0
209.09405517578125 228.0
215.08595275878906 213.0
218.07220458984375 179.0
219.07843017578125 255.0
221.09364318847656 343.0
222.10470581054688 316.0
224.0812530517578 246.0
233.09580993652344 729.0
234.1017303466797 451.0
235.10549926757812 280.0
236.09632873535156 425.0
237.09788513183594 419.0
238.09506225585938 345.0
239.1051788330078 173.0
247.11087036132812 481.0
248.1001434326172 288.0
249.1046600341797 617.0
250.10011291503906 948.0
251.11090087890625 496.0
252.1014404296875 190.0
253.12295532226562 305.0
261.0972595214844 316.0
262.0981750488281 214.0
263.1078796386719 701.0
264.1172180175781 1137.0
265.1193542480469 1442.0
266.12567138671875 502.0
267.1017761230469 327.0
268.12103271484375 220.0
269.12384033203125 296.0
275.1356506347656 674.0
276.11181640625 285.0
277.1224060058594 463.0
278.1208190917969 872.0
279.1139831542969 539.0
280.14178466796875 1187.0
281.1221008300781 1964.0
282.12060546875 522.0
283.1326904296875 172.0
290.126953125 473.0
291.1149597167969 199.0
292.099853515625 464.0
293.1248779296875 3684.0
294.1372375488281 854.0
295.13446044921875 1216.0
296.1430358886719 2069.0
297.1146240234375 815.0
298.1459655761719 1513.0
306.11224365234375 1124.0
307.13446044921875 420.0
308.1411437988281 6683.0
309.1223449707031 1773.0
310.1495666503906 1293.0
311.15625 551.0
312.1595764160156 2702.0
313.1570739746094 302.0
322.14068603515625 3672.0
323.1590270996094 750.0
324.1638488769531 2467.0
325.1372985839844 752.0
326.1375732421875 2565.0
327.1647644042969 1059.0
339.1671142578125 1687.0
340.15509033203125 14520.0
341.1729736328125 3975.0
354.1716613769531 242.0
355.1018981933594 616.0
356.1895751953125 269768.0
357.3187255859375 169.0
357.5999450683594 159.0

Name: Lycorine hydrochloride
Precursor_mz: 288.1232967
Cas: 2188-68-3
Adduct: [M+H]+
Mz: 288.1230345
Comment: Major
Smiles: O[C@H]1C=C2CCN3Cc4cc5c(cc4[C@H]([C@@H]1O)[C@@H]23)OCO5
Formula: C16H17NO4
Mix: Alkaloids-pos-mix7
Rt: [4.359, 1.022]
Rt_apex: 1.028555143
Rt_start: 0.917716667
Rt_end: 1.3451
Ms1_intensity: 682198
N_scnas: 95
Ms1_scan_range: [253, 279, 349]
Reci_snr: 0.001015609
Ms2_scan_idx: 428
Pmz_offset: 0.001025769
Entropy: 0.9883600473403931
Num Peaks: 88
55.05422592163086 260.0
65.0389404296875 949.0
67.05521392822266 870.0
77.03802490234375 296.0
79.0550308227539 398.0
80.04882049560547 540.0
82.06392669677734 2479.0
83.05081939697266 1867.0
91.05516815185547 21920.0
94.0685043334961 383.0
95.04964447021484 5159.0
96.08126068115234 242.0
106.06538391113281 1307.0
107.04606628417969 334.0
110.0593490600586 293.0
111.06715393066406 1524.0
112.07361602783203 2588.0
115.05247497558594 666.0
116.05411529541016 234.0
119.04985809326172 80462.0
122.0589599609375 533.0
124.07339477539062 2999.0
129.06997680664062 233.0
131.0496368408203 272.0
132.0491485595703 365.0
134.05955505371094 2761.0
135.04437255859375 1603.0
136.05078125 868.0
141.0688934326172 431.0
143.04586791992188 187.0
147.04446411132812 83087.0
149.05758666992188 1865.0
152.062255859375 818.0
153.07106018066406 440.0
154.0692596435547 224.0
155.0899200439453 515.0
159.04165649414062 409.0
163.0377197265625 246.0
165.0687713623047 618.0
167.0833740234375 566.0
168.08251953125 340.0
169.08282470703125 330.0
170.09707641601562 286.0
173.06016540527344 670.0
175.0373992919922 407.0
177.05572509765625 10053.0
180.08421325683594 228.0
181.06289672851562 180.0
183.08709716796875 195.0
184.11199951171875 415.0
185.05764770507812 258.0
188.0707550048828 663.0
192.07940673828125 374.0
193.0901336669922 659.0
194.09371948242188 2391.0
195.080322265625 541.0
196.0772705078125 347.0
197.08859252929688 473.0
198.0867156982422 237.0
199.07745361328125 584.0
207.068115234375 243.0
209.08425903320312 178.0
210.0919189453125 274.0
211.07550048828125 471.0
212.11044311523438 1356.0
213.0905303955078 585.0
214.0811004638672 338.0
221.08567810058594 216.0
222.0904541015625 4149.0
223.0828399658203 313.0
224.104736328125 385.0
225.0868682861328 1074.0
226.08802795410156 501.0
227.07872009277344 259.0
228.10125732421875 329.0
237.07884216308594 330.0
238.09112548828125 354.0
239.0990753173828 323.0
240.10479736328125 1566.0
241.0843048095703 466.0
242.12039184570312 1277.0
250.0850067138672 587.0
251.09353637695312 339.0
252.1063232421875 2842.0
255.09640502929688 240.0
268.09393310546875 343.0
270.1151123046875 13930.0
288.1278381347656 74557.0

Name: Sophocarpine monohydrate
Precursor_mz: 247.1804647
Cas: 145572-44-7
Adduct: [M+H]+
Mz: 247.1804898
Comment: Major
Smiles: O=C1C=CC[C@@H]2[C@H]3CCCN4CCC[C@@H](CN12)[C@@H]34
Formula: C15H22N2O
Mix: Alkaloids-pos-mix7
Rt: [1.319]
Rt_apex: 1.314366339
Rt_start: 1.2766
Rt_end: 1.426583333
Ms1_intensity: 2104022
N_scnas: 24
Ms1_scan_range: [338, 344, 363]
Reci_snr: 0.002826946
Ms2_scan_idx: 535
Pmz_offset: 0.001900788
Entropy: 0.9248294234275818
Num Peaks: 93
41.03993225097656 2327.0
42.033870697021484 1043.0
44.04996871948242 7367.0
53.039405822753906 433.0
55.05415344238281 866.0
56.04986572265625 714.0
58.063785552978516 499.0
67.05397033691406 1015.0
68.05048370361328 5452.0
69.0683364868164 711.0
70.06438446044922 1678.0
77.03914642333984 1419.0
78.03510284423828 590.0
79.05242919921875 2526.0
80.04997253417969 4082.0
81.05755615234375 2039.0
82.06636047363281 1315.0
83.07117462158203 526.0
84.080810546875 2326.0
91.05370330810547 2627.0
92.04865264892578 423.0
93.07066345214844 1181.0
94.0656509399414 4253.0
95.07550811767578 350.0
96.08113098144531 100932.0
98.09712219238281 9135.0
100.11157989501953 512.0
103.05195617675781 238.0
104.0472640991211 725.0
105.07324981689453 694.0
106.06379699707031 1320.0
107.08657836914062 461.0
108.0807113647461 22076.0
109.05305480957031 939.0
110.09600830078125 3085.0
112.0734634399414 1255.0
115.05081939697266 334.0
117.05538177490234 856.0
119.08491516113281 1268.0
120.08084869384766 2653.0
121.09173583984375 612.0
122.09600830078125 4410.0
123.06861877441406 245.0
124.1138687133789 1735.0
130.06494140625 432.0
131.0719451904297 526.0
132.0812225341797 1028.0
133.0506591796875 730.0
134.09837341308594 2769.0
135.10452270507812 436.0
136.11280822753906 150045.0
137.11825561523438 588.0
138.12741088867188 7220.0
144.08309936523438 198.0
146.06065368652344 2701.0
147.06979370117188 860.0
148.1114501953125 6339.0
149.12078857421875 1226.0
150.12838745117188 29522.0
152.14166259765625 2792.0
158.10133361816406 235.0
159.0697479248047 296.0
160.07485961914062 1851.0
161.0831298828125 505.0
162.08921813964844 1883.0
163.0858917236328 503.0
164.10537719726562 1261.0
172.07736206054688 432.0
173.0857696533203 289.0
174.0934295654297 1443.0
175.0872802734375 198.0
176.10818481445312 2094.0
177.10403442382812 719.0
179.15487670898438 94632.0
186.08969116210938 712.0
187.09605407714844 232.0
188.10899353027344 972.0
189.10536193847656 375.0
190.11984252929688 676.0
191.11570739746094 1413.0
200.1081085205078 366.0
202.1240692138672 957.0
204.13812255859375 334.0
214.14857482910156 215.0
217.13246154785156 364.0
227.154541015625 1709.0
228.13909912109375 1817.0
229.17250061035156 2994.0
230.15289306640625 1002.0
246.42538452148438 989.0
247.18154907226562 468564.0
248.18643188476562 238.0
248.36111450195312 162.0

Name: Sophocarpine monohydrate
Precursor_mz: 269.1621743
Cas: 145572-44-7
Adduct: [M+Na]+
Mz: 269.162434
Comment: Major
Smiles: O=C1C=CC[C@@H]2[C@H]3CCCN4CCC[C@@H](CN12)[C@@H]34
Formula: C15H22N2O
Mix: Alkaloids-pos-mix7
Rt: [1.319]
Rt_apex: 1.327091185
Rt_start: 1.2256
Rt_end: 1.46025
Ms1_intensity: 15932
N_scnas: 39
Ms1_scan_range: [328, 346, 368]
Reci_snr: 0.006185059
Ms2_scan_idx: 537
Pmz_offset: 0.000692318
Entropy: nan
Num Peaks: 1
269.1653747558594 123.0

Name: Trigonelline chloride
Precursor_mz: 138.054381
Cas: 6138-41-6
Adduct: [M+H]+
Mz: 138.0549549
Comment: Major
Smiles: C[n+]1cccc(C(=O)[O-])c1
Formula: C7H7NO2
Mix: Alkaloids-pos-mix7
Rt: [0.293]
Rt_apex: 0.292583118
Rt_start: 0.253033333
Rt_end: 0.51415
Ms1_intensity: 762874
N_scnas: 59
Ms1_scan_range: [92, 98, 152]
Reci_snr: 5.7e-05
Ms2_scan_idx: 139
Pmz_offset: 0.0
Entropy: 0.9921942353248596
Num Peaks: 25
40.03386306762695 92.0
41.03898620605469 2394.0
42.035640716552734 2868.0
49.01046371459961 93.0
50.01566696166992 1354.0
51.02305603027344 4468.0
52.030364990234375 3668.0
53.040367126464844 4830.0
54.03841018676758 93.0
65.03990936279297 10939.0
66.03279876708984 1815.0
67.05503845214844 1198.0
76.02013397216797 92.0
77.04029083251953 341.0
78.0350112915039 10322.0
79.0436019897461 7783.0
80.04862213134766 1204.0
92.05123138427734 23793.0
93.05972290039062 7028.0
94.06554412841797 20932.0
96.04525756835938 389.0
108.04119110107422 93.0
110.06201171875 587.0
120.046875 382.0
138.05633544921875 12549.0

Name: Rutaecarpine
Precursor_mz: 288.1130393
Cas: 84-26-4
Adduct: [M+H]+
Mz: 288.1131385
Comment: Major
Smiles: O=c1c2ccccc2nc2n1CCc1c-2[nH]c2ccccc12
Formula: C18H13N3O
Mix: Alkaloids-pos-mix7
Rt: [4.359, 1.022]
Rt_apex: 4.360353125
Rt_start: 4.30705
Rt_end: 5.903616667
Ms1_intensity: 2375056
N_scnas: 367
Ms1_scan_range: [847, 855, 1215]
Reci_snr: 0.000389755
Ms2_scan_idx: 2112
Pmz_offset: 0.001969834
Entropy: 0.9811126589775085
Num Peaks: 112
41.037376403808594 209.0
51.02228927612305 225.0
65.03907775878906 1959.0
69.0685806274414 190.0
77.0381851196289 2815.0
89.03927612304688 2100.0
90.03384399414062 5301.0
91.05401611328125 1048.0
92.04896545410156 10241.0
101.03936004638672 221.0
102.0447769165039 1283.0
103.05374145507812 455.0
104.05191802978516 743.0
105.03621673583984 236.0
113.03858947753906 231.0
114.04043579101562 204.0
115.0542221069336 38257.0
116.05284881591797 7263.0
117.0633773803711 3401.0
118.06608581542969 1347.0
119.03632354736328 525.0
120.0458984375 19923.0
127.05502319335938 1004.0
128.0487518310547 1653.0
129.05589294433594 1896.0
130.06700134277344 4416.0
135.0430145263672 788.0
137.04808044433594 679.0
140.05099487304688 4550.0
141.0525360107422 660.0
142.0659942626953 20893.0
143.0679931640625 8361.0
144.07855224609375 10787.0
145.04026794433594 19199.0
146.06285095214844 2119.0
147.0583953857422 1397.0
152.0522003173828 612.0
153.0470733642578 290.0
155.0587921142578 3034.0
156.07044982910156 289.0
157.07484436035156 706.0
158.06129455566406 269.0
161.04808044433594 266.0
165.0709228515625 250.0
167.0619659423828 11856.0
168.06468200683594 1740.0
169.07769775390625 33190.0
170.05899047851562 3856.0
171.0559844970703 3775.0
172.04666137695312 861.0
173.04945373535156 1186.0
175.0618896484375 275.0
176.06410217285156 235.0
183.05711364746094 402.0
185.06948852539062 1579.0
188.0653839111328 231.0
189.0674285888672 1663.0
190.06439208984375 1485.0
191.07174682617188 238.0
195.0552520751953 513.0
201.05284118652344 371.0
202.05694580078125 1972.0
203.06155395507812 3179.0
204.0806884765625 1015.0
205.08828735351562 212.0
206.098388671875 287.0
207.09075927734375 270.0
208.07337951660156 228.0
214.0671844482422 866.0
215.07237243652344 1744.0
216.0799102783203 10177.0
217.08566284179688 1965.0
218.08546447753906 5009.0
219.0917205810547 3789.0
220.077392578125 219.0
226.06951904296875 431.0
228.0720672607422 227.0
229.07557678222656 737.0
230.0876922607422 593.0
231.0956268310547 2942.0
232.10150146484375 3528.0
233.1116943359375 887.0
234.07899475097656 517.0
235.08702087402344 918.0
241.07827758789062 836.0
242.08596801757812 11436.0
243.09356689453125 16463.0
244.08792114257812 38895.0
245.09967041015625 9183.0
246.10472106933594 2904.0
247.08755493164062 2380.0
253.0770263671875 758.0
256.0818176269531 203.0
257.09112548828125 644.0
258.1046447753906 1154.0
259.0885314941406 2679.0
260.11956787109375 2687.0
261.1095886230469 4426.0
262.0968933105469 5368.0
269.09954833984375 467.0
270.1041564941406 6853.0
271.0875244140625 55677.0
272.08428955078125 9956.0
273.0944519042969 72162.0
285.09228515625 440.0
286.0978088378906 34185.0
287.10986328125 2484.0
287.23114013671875 1823.0
288.1165466308594 863215.0
288.989013671875 716.0
289.17987060546875 588.0
289.3946838378906 381.0

Name: Evodiamine
Precursor_mz: 304.1432951
Cas: 518-17-2
Adduct: [M+H]+
Mz: 304.1444386
Comment: Major
Smiles: CN1c2ccccc2C(=O)N2CCc3c([nH]c4ccccc34)C21
Formula: C19H17N3O
Mix: Alkaloids-pos-mix7
Rt: [4.271]
Rt_apex: 4.26791497
Rt_start: 3.974116667
Rt_end: 4.595216667
Ms1_intensity: 1445325
N_scnas: 104
Ms1_scan_range: [791, 841, 896]
Reci_snr: 0.000391175
Ms2_scan_idx: 2076
Pmz_offset: 0.00046321
Entropy: 1.0000001192092896
Num Peaks: 56
51.025184631347656 685.0
54.033382415771484 462.0
65.03780364990234 562.0
77.03924560546875 11577.0
78.04512023925781 885.0
79.05501556396484 12559.0
89.03775787353516 3021.0
91.0551528930664 34710.0
92.05010986328125 783.0
104.04739379882812 647.0
105.03453826904297 2126.0
106.06536865234375 42821.0
107.0518569946289 558.0
115.05245971679688 1190.0
116.05107879638672 42104.0
117.06767272949219 2182.0
118.06430053710938 4154.0
120.04254913330078 1259.0
127.05316162109375 1367.0
128.0516357421875 1445.0
129.068359375 183.0
130.0651092529297 1254.0
132.0458984375 3140.0
134.05953979492188 173953.0
142.065673828125 387.0
143.0727081298828 2191.0
144.0815887451172 32578.0
145.08895874023438 228.0
146.05743408203125 1120.0
154.06227111816406 5757.0
155.05670166015625 208.0
156.0666046142578 884.0
161.07264709472656 36757.0
169.07733154296875 1415.0
171.09230041503906 48641.0
216.0794219970703 544.0
217.0893096923828 263.0
218.0911865234375 294.0
231.0972442626953 269.0
232.09671020507812 465.0
233.11117553710938 627.0
245.09912109375 189.0
247.12229919433594 667.0
257.1085510253906 327.0
259.08343505859375 171.0
260.0918273925781 255.0
261.1044616699219 182.0
270.09893798828125 191.0
272.1322937011719 207.0
273.1077575683594 366.0
274.1337585449219 410.0
275.1151123046875 490.0
276.1448974609375 523.0
286.1280212402344 400.0
288.11114501953125 479.0
304.14678955078125 19017.0

Name: Oxymatrine
Precursor_mz: 265.1905387
Cas: 16837-52-8
Adduct: [M+H]+
Mz: 265.1910545
Comment: Major
Smiles: O=C1CCC[C@@H]2[C@H]3CCC[N+]4([O-])CCC[C@@H](CN12)[C@@H]34
Formula: C15H24N2O2
Mix: Alkaloids-pos-mix7
Rt: [1.456]
Rt_apex: 1.455538803
Rt_start: 1.413083333
Rt_end: 2.00255
Ms1_intensity: 1890823
N_scnas: 110
Ms1_scan_range: [361, 367, 472]
Reci_snr: 0.000114814
Ms2_scan_idx: 655
Pmz_offset: 0.001651348
Entropy: 0.9999998807907104
Num Peaks: 29
70.06797790527344 89.0
94.06438446044922 93.0
96.0798568725586 158.0
106.0667953491211 148.0
110.09906768798828 100.0
112.07654571533203 170.0
120.08097076416016 659.0
122.0945816040039 302.0
132.0829620361328 102.0
133.0880126953125 212.0
134.0985107421875 151.0
136.11294555664062 865.0
137.12168884277344 353.0
138.13084411621094 98.0
148.11671447753906 937.0
150.12681579589844 721.0
161.0868682861328 190.0
162.09295654296875 213.0
176.10650634765625 290.0
177.14157104492188 290.0
188.10533142089844 173.0
192.16297912597656 142.0
205.13803100585938 1442.0
206.19056701660156 296.0
219.1472625732422 142.0
220.19552612304688 131.0
247.18621826171875 1617.0
248.19110107421875 211.0
265.19281005859375 5768.0

Name: Palmatine chloride
Precursor_mz: 352.154818
Cas: 10605-02-4
Adduct: [M]+
Mz: 352.1543346
Comment: Major
Smiles: COc1cc2c(cc1OC)-c1cc3ccc(OC)c(OC)c3c[n+]1CC2
Formula: C21H22NO4+
Mix: Alkaloids-pos-mix8
Rt: [2.94]
Rt_apex: 2.936301648
Rt_start: 2.883
Rt_end: 3.572783333
Ms1_intensity: 7929924
N_scnas: 120
Ms1_scan_range: [675, 684, 796]
Reci_snr: 0.000861123
Ms2_scan_idx: 1297
Pmz_offset: 0.00250167
Entropy: 0.9843143820762634
Num Peaks: 80
176.05482482910156 189.0
177.05052185058594 181.0
178.06402587890625 287.0
189.07131958007812 191.0
190.06442260742188 231.0
191.07371520996094 686.0
192.083740234375 270.0
203.0775909423828 250.0
204.084716796875 1406.0
205.0541534423828 415.0
206.06617736816406 350.0
207.05848693847656 199.0
216.0840606689453 294.0
217.085693359375 590.0
218.09793090820312 1213.0
219.07098388671875 437.0
220.0815887451172 1846.0
221.08407592773438 1494.0
222.09304809570312 283.0
230.0941162109375 377.0
231.0743408203125 174.0
232.07801818847656 1047.0
233.08816528320312 7542.0
234.09620666503906 3541.0
235.10427856445312 4641.0
236.07138061523438 496.0
241.1153564453125 365.0
245.08872985839844 272.0
246.09153747558594 3362.0
247.10081481933594 5919.0
248.07679748535156 1574.0
249.0790557861328 5042.0
250.08778381347656 21059.0
251.065185546875 425.0
258.0911560058594 233.0
259.1021423339844 1721.0
260.0766296386719 502.0
261.08013916015625 1600.0
262.0878601074219 5983.0
263.0975341796875 17995.0
264.10455322265625 30300.0
265.0724182128906 447.0
266.1152648925781 262.0
273.0736083984375 704.0
274.09259033203125 1143.0
275.0948181152344 24478.0
276.1012268066406 13822.0
277.0744323730469 1577.0
278.08447265625 131673.0
279.0939636230469 34666.0
280.1335144042969 341.0
288.10467529296875 392.0
289.0749206542969 709.0
290.0850524902344 7423.0
291.123291015625 35107.0
292.1034240722656 267933.0
293.10919189453125 42475.0
294.11431884765625 352092.0
302.0830078125 917.0
303.0887145996094 498.0
304.0985412597656 50088.0
305.1125183105469 8478.0
306.0815124511719 7072.0
307.1282958984375 20048.0
308.13250732421875 545192.0
309.12847900390625 426.0
316.06805419921875 296.0
318.07708740234375 17854.0
319.0940246582031 2285.0
320.1000061035156 179592.0
322.1142578125 319166.0
323.117431640625 349.0
334.1116638183594 35033.0
336.130859375 725424.0
337.1375732421875 363368.0
338.1380615234375 229.0
351.0767517089844 2265.0
352.1661376953125 522636.0
353.2572326660156 868.0
353.5711975097656 445.0

Name: Reserpine
Precursor_mz: 609.2818762
Cas: 50-55-5
Adduct: [M+H]+
Mz: 609.2806573
Comment: Major
Smiles: COC(=O)[C@H]1[C@H]2C[C@@H]3c4[nH]c5cc(OC)ccc5c4CCN3C[C@H]2C[C@@H](OC(=O)c2cc(OC)c(OC)c(OC)c2)[C@@H]1OC
Formula: C33H40N2O9
Mix: Alkaloids-pos-mix8
Rt: [3.712]
Rt_apex: 3.706464082
Rt_start: 3.672116667
Rt_end: 3.796783333
Ms1_intensity: 3839902
N_scnas: 18
Ms1_scan_range: [811, 817, 830]
Reci_snr: 6.5e-05
Ms2_scan_idx: 1711
Pmz_offset: 0.003329263
Entropy: 0.9344317317008972
Num Peaks: 193
44.04737091064453 239.0
56.05010986328125 264.0
70.06468963623047 178.0
77.03825378417969 546.0
79.05027770996094 374.0
80.0503158569336 237.0
81.0680160522461 192.0
91.05543518066406 777.0
93.06970977783203 206.0
94.06742095947266 649.0
96.05953979492188 323.0
97.06619262695312 174.0
103.05525207519531 387.0
105.06794738769531 332.0
106.06425476074219 470.0
108.0811767578125 252.0
109.06378173828125 956.0
111.04530334472656 1183.0
115.05281829833984 698.0
117.0710678100586 376.0
118.06008911132812 598.0
120.07828521728516 816.0
121.06137084960938 358.0
122.03761291503906 547.0
123.08004760742188 717.0
124.05500030517578 880.0
126.0936508178711 244.0
129.0703582763672 225.0
130.06871032714844 1680.0
131.072509765625 2173.0
132.07855224609375 956.0
135.082275390625 334.0
136.0740966796875 323.0
137.020263671875 542.0
139.0746612548828 1786.0
142.06443786621094 505.0
143.07313537597656 2468.0
144.07867431640625 1232.0
145.0877227783203 211.0
146.061279296875 323.0
147.07553100585938 1129.0
148.0762176513672 3239.0
149.0597381591797 438.0
150.09120178222656 416.0
151.03826904296875 391.0
152.04539489746094 2430.0
154.06622314453125 222.0
156.08285522460938 292.0
157.09608459472656 225.0
158.0631866455078 374.0
159.06866455078125 3813.0
160.07554626464844 4003.0
161.08383178710938 862.0
162.09349060058594 1530.0
163.07583618164062 304.0
164.10968017578125 298.0
166.0876922607422 176.0
167.0711669921875 4023.0
169.0869598388672 416.0
172.0725860595703 936.0
173.0846710205078 749.0
174.09231567382812 142892.0
175.07504272460938 983.0
176.10707092285156 1686.0
178.08660888671875 662.0
181.0917510986328 411.0
184.07254028320312 294.0
185.08108520507812 192.0
186.0943145751953 1627.0
187.09494018554688 388.0
188.10594177246094 3972.0
189.104248046875 218.0
190.08970642089844 1547.0
192.10330200195312 11529.0
193.0848388671875 473.0
195.06716918945312 304492.0
197.08917236328125 174.0
198.0912322998047 544.0
199.0998077392578 721.0
200.10499572753906 3301.0
201.09877014160156 894.0
202.11695861816406 279.0
204.1029052734375 3593.0
206.12071228027344 212.0
207.10304260253906 334.0
210.104736328125 573.0
211.0965118408203 268.0
212.11105346679688 785.0
213.1013946533203 362.0
214.11251831054688 1032.0
215.11575317382812 2222.0
216.10482788085938 226.0
222.11410522460938 1368.0
223.09605407714844 184.0
224.1284942626953 7942.0
226.12033081054688 563.0
227.11956787109375 1035.0
228.1294708251953 684.0
229.13735961914062 850.0
236.1297607421875 24442.0
237.1076202392578 479.0
238.11781311035156 1166.0
239.1279754638672 335.0
242.12545776367188 296.0
247.10760498046875 202.0
248.11012268066406 737.0
249.11465454101562 361.0
250.12567138671875 486.0
251.1187286376953 482.0
252.12710571289062 704.0
253.14198303222656 805.0
254.1409912109375 453.0
255.10833740234375 181.0
260.1130065917969 287.0
261.1211242675781 437.0
262.12890625 770.0
263.1295471191406 318.0
264.13665771484375 338.0
265.1274108886719 785.0
266.1497802734375 464.0
267.1580505371094 395.0
274.1206359863281 630.0
275.1299133300781 394.0
276.13873291015625 1725.0
277.1493835449219 325.0
279.1480712890625 275.0
281.1610412597656 337.0
284.1289367675781 261.0
286.1455078125 257.0
287.1409912109375 196.0
288.1453552246094 1343.0
289.1419372558594 456.0
290.1235046386719 723.0
291.1474304199219 225.0
292.1347961425781 264.0
294.1506042480469 180.0
296.1226501464844 328.0
297.1353454589844 191.0
302.1173400878906 687.0
304.1330261230469 1781.0
305.1568298339844 750.0
306.1774597167969 385.0
308.16473388671875 421.0
309.1286926269531 274.0
310.1510009765625 183.0
316.13812255859375 573.0
322.14215087890625 1526.0
333.1609191894531 2033.0
334.1426696777344 716.0
336.1645202636719 5967.0
337.1944885253906 532.0
338.1640930175781 195.0
339.1738586425781 199.0
340.1566467285156 324.0
341.19268798828125 187.0
347.1858215332031 475.0
348.15655517578125 3046.0
349.14703369140625 177.0
350.16778564453125 772.0
354.170654296875 882.0
365.18853759765625 30519.0
366.17340087890625 1044.0
368.1901550292969 4404.0
379.20367431640625 291.0
380.1880798339844 2667.0
381.1874694824219 573.0
382.1936340332031 671.0
386.2095642089844 235.0
395.2021179199219 216.0
395.9975891113281 519.0
396.2070617675781 235.0
397.216064453125 170473.0
398.2039794921875 368.0
402.15655517578125 789.0
404.16839599609375 768.0
413.2095642089844 1265.0
416.1672668457031 425.0
434.1788024902344 1984.0
436.20458984375 7143.0
448.1999816894531 61220.0
450.219482421875 233.0
559.2574462890625 435.0
560.2434692382812 434.0
577.2575073242188 8155.0
580.2587890625 511.0
591.2730712890625 869.0
592.2733154296875 686.0
608.2811279296875 341.0
609.28173828125 664154.0
610.8414916992188 520.0
611.0149536132812 174.0
611.146728515625 280.0
611.278564453125 156.0

Name: Reserpine
Precursor_mz: 609.2782531
Cas: 50-55-5
Adduct: [M+H]+
Mz: 609.2806573
Comment: Minor
Smiles: COC(=O)[C@H]1[C@H]2C[C@@H]3c4[nH]c5cc(OC)ccc5c4CCN3C[C@H]2C[C@@H](OC(=O)c2cc(OC)c(OC)c(OC)c2)[C@@H]1OC
Formula: C33H40N2O9
Mix: Alkaloids-pos-mix8
Rt: [3.712]
Rt_apex: 3.646287754
Rt_start: 3.603333333
Rt_end: 3.672116667
Ms1_intensity: 3103
N_scnas: 9
Ms1_scan_range: [801, 807, 811]
Reci_snr: 0.071189208
Ms2_scan_idx: 1664
Pmz_offset: 0.000293819
Entropy: 1.0
Num Peaks: 10
106.06425476074219 46.0
174.09046936035156 318.0
192.1033172607422 46.0
195.06521606445312 471.0
224.1243133544922 46.0
236.13839721679688 62.0
365.1858825683594 77.0
397.2189025878906 246.0
448.19110107421875 210.0
609.2852783203125 438.0

Name: Reserpine
Precursor_mz: 631.261313
Cas: 50-55-5
Adduct: [M+Na]+
Mz: 631.2626016
Comment: Major
Smiles: COC(=O)[C@H]1[C@H]2C[C@@H]3c4[nH]c5cc(OC)ccc5c4CCN3C[C@H]2C[C@@H](OC(=O)c2cc(OC)c(OC)c(OC)c2)[C@@H]1OC
Formula: C33H40N2O9
Mix: Alkaloids-pos-mix8
Rt: [3.712]
Rt_apex: 3.707851659
Rt_start: 3.66545
Rt_end: 3.866266667
Ms1_intensity: 21817
N_scnas: 30
Ms1_scan_range: [810, 817, 841]
Reci_snr: 0.006441246
Ms2_scan_idx: 1688
Pmz_offset: 0.001885
Entropy: 0.9999998807907104
Num Peaks: 4
333.1607666015625 154.0
365.1910400390625 297.0
599.2432861328125 707.0
631.2710571289062 1059.0

Name: (-)-Sparteine sulfate pentahydrate
Precursor_mz: 235.2175153
Cas: 12/9/60
Adduct: [M+H]+
Mz: 235.2168753
Comment: Major
Smiles: C1CCN2C[C@H]3C[C@H](CN4CCCC[C@H]34)[C@@H]2C1
Formula: C15H26N2
Mix: Alkaloids-pos-mix8
Rt: [1.426]
Rt_apex: 1.42640729
Rt_start: 1.3782
Rt_end: 2.115716667
Ms1_intensity: 1243749
N_scnas: 140
Ms1_scan_range: [392, 400, 533]
Reci_snr: 0.000261527
Ms2_scan_idx: 607
Pmz_offset: 0.002051261
Entropy: 0.8250404596328735
Num Peaks: 40
41.038265228271484 216.0
42.034912109375 656.0
44.05010986328125 339.0
55.054325103759766 855.0
56.05214309692383 917.0
67.05418395996094 240.0
69.0697250366211 249.0
70.06460571289062 3362.0
77.03939056396484 154.0
79.05142974853516 235.0
80.05147552490234 195.0
81.06665802001953 320.0
82.06153106689453 453.0
84.07978057861328 6010.0
91.05130767822266 347.0
93.06824493408203 348.0
94.06730651855469 154.0
95.08264923095703 244.0
96.08142852783203 1616.0
98.09742736816406 132571.0
109.08710479736328 154.0
110.09487915039062 1283.0
122.09638214111328 365.0
124.11425018310547 537.0
134.0955352783203 1621.0
136.11158752441406 467.0
138.12619018554688 344.0
148.1136016845703 458.0
150.12713623046875 1729.0
152.14559936523438 2342.0
162.12008666992188 92.0
164.1436309814453 453.0
190.1591339111328 895.0
192.175048828125 192.0
204.17282104492188 92.0
234.50205993652344 741.0
235.21820068359375 374752.0
236.2200469970703 176.0
236.3710479736328 185.0
237.18080139160156 92.0

Name: Pilocarpine Hydrochloride
Precursor_mz: 209.128915
Cas: 54-71-7
Adduct: [M+H]+
Mz: 209.1284542
Comment: Major
Smiles: CC[C@@H]1C(=O)OC[C@@H]1Cc1cncn1C
Formula: C11H16N2O2
Mix: Alkaloids-pos-mix8
Rt: [1.237]
Rt_apex: 1.234064558
Rt_start: 1.093633333
Rt_end: 1.447266667
Ms1_intensity: 1323403
N_scnas: 66
Ms1_scan_range: [336, 365, 403]
Reci_snr: 0.000212598
Ms2_scan_idx: 472
Pmz_offset: 0.001221236
Entropy: 0.9999998807907104
Num Peaks: 7
94.06463623046875 93.0
95.05944061279297 537.0
96.06635284423828 391.0
121.07673645019531 252.0
122.09800720214844 93.0
163.12770080566406 93.0
209.1354522705078 490.0

Name: L-Hyoscyamine
Precursor_mz: 290.1754762
Cas: 101-31-5
Adduct: [M+H]+
Mz: 290.1750701
Comment: Major
Smiles: CN1[C@H]2CC[C@@H]1C[C@H](OC(=O)[C@H](CO)c1ccccc1)C2
Formula: C17H23NO3
Mix: Alkaloids-pos-mix8
Rt: [2.127]
Rt_apex: 2.126989391
Rt_start: 2.085883333
Rt_end: 2.662016667
Ms1_intensity: 5592517
N_scnas: 102
Ms1_scan_range: [528, 535, 631]
Reci_snr: 1.33e-05
Ms2_scan_idx: 914
Pmz_offset: 0.000721445
Entropy: 0.9934068918228149
Num Peaks: 69
41.03924560546875 5353.0
42.03408432006836 2834.0
43.01690673828125 242.0
44.050193786621094 8411.0
50.014991760253906 419.0
51.02437973022461 2824.0
53.03865432739258 610.0
55.05547332763672 1721.0
56.05015182495117 2738.0
57.0579719543457 3157.0
58.066219329833984 2400.0
65.0391845703125 4549.0
67.05545806884766 64770.0
68.05082702636719 8815.0
69.06868743896484 510.0
70.06591033935547 8580.0
77.03953552246094 101439.0
78.04789733886719 439.0
79.0553207397461 6222.0
80.05037689208984 1241.0
81.0693359375 979.0
82.06550598144531 27432.0
83.07415008544922 10240.0
84.08123016357422 118.0
86.05892181396484 310.0
91.05549621582031 233637.0
93.07112884521484 577076.0
94.06476593017578 5320.0
95.08419799804688 23047.0
96.08161163330078 19165.0
97.09114837646484 1148.0
98.09761810302734 7979.0
100.07417297363281 97.0
102.04776763916016 688.0
103.0553207397461 58999.0
105.04500579833984 1102.0
106.06721496582031 195.0
107.08421325683594 1178.0
108.07979583740234 3177.0
109.08877563476562 3873.0
110.0965576171875 355.0
111.08087158203125 514.0
117.07115173339844 172.0
121.06609344482422 20451.0
122.0981674194336 2307.0
123.108154296875 95.0
124.11448669433594 851381.0
125.12178039550781 9063.0
126.09689331054688 111.0
129.07522583007812 136.0
131.0485076904297 287.0
134.1006622314453 98.0
140.10768127441406 5716.0
141.0677490234375 184.0
142.12477111816406 28830.0
143.08331298828125 112.0
149.06155395507812 101.0
183.1162567138672 150.0
185.10031127929688 87.0
214.159912109375 1753.0
242.15838623046875 508.0
259.1589660644531 533.0
260.1697692871094 7981.0
272.16802978515625 481.0
289.29248046875 1723.0
290.1786804199219 535973.0
291.0614318847656 700.0
291.243408203125 500.0
291.45660400390625 222.0

Name: Thiabendazole
Precursor_mz: 202.0437613
Cas: 148-79-8
Adduct: [M+H]+
Mz: 202.0433449
Comment: Major
Smiles: c1ccc2[nH]c(-c3cscn3)nc2c1
Formula: C10H7N3S
Mix: Alkaloids-pos-mix8
Rt: [1.796]
Rt_apex: 1.799945235
Rt_start: 1.729583333
Rt_end: 2.115716667
Ms1_intensity: 3908382
N_scnas: 75
Ms1_scan_range: [457, 469, 533]
Reci_snr: 0.000224798
Ms2_scan_idx: 746
Pmz_offset: 0.002069171
Entropy: 0.9697189331054688
Num Peaks: 72
41.040077209472656 153.0
44.97795486450195 413.0
50.0129280090332 114.0
51.025299072265625 774.0
52.018463134765625 195.0
56.98052978515625 184.0
63.02238845825195 780.0
64.01778411865234 155.0
65.03907775878906 180098.0
66.03424835205078 1317.0
68.97764587402344 100.0
74.00901794433594 122.0
75.02413940429688 197.0
76.01681518554688 114.0
77.03941345214844 17444.0
78.03289794921875 226.0
83.98976135253906 788.0
89.03662872314453 598.0
90.03384399414062 5197.0
91.04330444335938 1935.0
92.0503158569336 112002.0
93.05609130859375 1183.0
95.04847717285156 197.0
102.03343200683594 2523.0
103.04376220703125 1058.0
104.05048370361328 78379.0
105.04340362548828 618.0
106.9925765991211 1521.0
110.9993667602539 1518.0
114.03443908691406 376.0
115.04218292236328 672.0
116.04981994628906 2164.0
117.05577850341797 814.0
118.05083465576172 8990.0
119.06082153320312 1693.0
121.00723266601562 513.0
122.00341033935547 222.0
129.04473876953125 3318.0
130.03977966308594 1024.0
131.06114196777344 829234.0
132.99607849121094 519.0
134.0062255859375 15070.0
135.01202392578125 125.0
141.0458526611328 326.0
142.0526123046875 3925.0
143.06126403808594 49843.0
144.0515899658203 413.0
148.01974487304688 1364.0
149.0133514404297 360.0
151.03468322753906 482.0
156.05642700195312 1528.0
157.06605529785156 4874.0
158.07188415527344 18246.0
160.00794982910156 529.0
161.01779174804688 1158.0
162.02545166015625 600.0
168.0537567138672 1673.0
169.061279296875 1989.0
170.07179260253906 8161.0
173.01806640625 145.0
174.0255126953125 1800.0
175.03404235839844 904082.0
176.02871704101562 353.0
185.02175903320312 258.0
201.03492736816406 121.0
201.4290771484375 2619.0
202.0449676513672 1000770.0
202.78367614746094 1472.0
202.9375762939453 718.0
203.11354064941406 523.0
203.2595672607422 104.0
203.4136505126953 98.0

Name: Bemegride
Precursor_mz: 156.1016234
Cas: 64-65-3
Adduct: [M+H]+
Mz: 156.1019051
Comment: Major
Smiles: CCC1(C)CC(=O)NC(=O)C1
Formula: C8H13NO2
Mix: Alkaloids-pos-mix8
Rt: [2.292]
Rt_apex: 2.293266118
Rt_start: 2.247216667
Rt_end: 2.391366667
Ms1_intensity: 191316
N_scnas: 23
Ms1_scan_range: [554, 561, 578]
Reci_snr: 0.001498524
Ms2_scan_idx: 1035
Pmz_offset: 0.000631697
Entropy: 0.9999999403953552
Num Peaks: 16
41.03924560546875 5708.0
42.034088134765625 214.0
43.05465316772461 1323.0
44.01388168334961 1833.0
53.038658142089844 93.0
55.057559967041016 529.0
57.056915283203125 92.0
69.07218933105469 872.0
71.08685302734375 123.0
72.08061218261719 262.0
77.03831481933594 93.0
83.08694458007812 92.0
86.09407806396484 307.0
97.0634994506836 744.0
111.08235931396484 93.0
128.1092987060547 204.0

Name: Pyrazinamide
Precursor_mz: 124.0504685
Cas: 98-96-4
Adduct: [M+H]+
Mz: 124.0505382
Comment: Major
Smiles: NC(=O)c1cnccn1
Formula: C5H5N3O
Mix: Alkaloids-pos-mix8
Rt: [0.643]
Rt_apex: 0.644305504
Rt_start: 0.566766667
Rt_end: 0.789083333
Ms1_intensity: 42698
N_scnas: 65
Ms1_scan_range: [165, 182, 231]
Reci_snr: 0.001560982
Ms2_scan_idx: 272
Pmz_offset: 0.001466411
Entropy: 1.0
Num Peaks: 16
41.026611328125 39.0
42.03494644165039 68.0
44.01289749145508 54.0
45.035404205322266 119.0
51.01028823852539 79.0
52.01848602294922 1555.0
53.02633285522461 39.0
54.03456115722656 2510.0
69.0452880859375 155.0
79.03028106689453 860.0
80.0364761352539 19.0
81.04524230957031 3003.0
96.05674743652344 156.0
97.04126739501953 48.0
107.0245590209961 64.0
124.05026245117188 872.0

Name: Miglitol
Precursor_mz: 208.1183315
Cas: 72432-03-2
Adduct: [M+H]+
Mz: 208.1179491
Comment: Major
Smiles: OCCN1C[C@H](O)[C@@H](O)[C@H](O)[C@H]1CO
Formula: C8H17NO5
Mix: Alkaloids-pos-mix8
Rt: [0.269]
Rt_apex: 0.265315359
Rt_start: 0.222966667
Rt_end: 0.5015
Ms1_intensity: 379401
N_scnas: 67
Ms1_scan_range: [84, 90, 152]
Reci_snr: 8.85e-05
Ms2_scan_idx: 123
Pmz_offset: 0.002024365
Entropy: 0.9991432428359985
Num Peaks: 57
41.03916549682617 1121.0
42.03309631347656 697.0
43.015907287597656 380.0
44.0491828918457 1072.0
45.03254699707031 2736.0
53.03855514526367 210.0
55.05432891845703 404.0
56.050045013427734 3249.0
57.03242874145508 290.0
58.06611251831055 1265.0
60.0460090637207 310.0
62.0590934753418 93.0
65.0390625 258.0
67.05418395996094 538.0
68.05301666259766 550.0
69.03240966796875 1289.0
70.06578063964844 460.0
72.04592895507812 437.0
73.02835845947266 335.0
74.05970764160156 4239.0
78.03411102294922 247.0
80.05022430419922 1685.0
81.03254699707031 271.0
82.06407928466797 1627.0
83.04841613769531 295.0
84.07978820800781 424.0
85.051513671875 310.0
86.05876159667969 1784.0
88.07655334472656 1032.0
93.05877685546875 542.0
94.06459045410156 1936.0
96.04705047607422 738.0
98.05851745605469 579.0
99.04344177246094 269.0
100.07679748535156 931.0
102.09436798095703 154.0
104.0690689086914 537.0
106.06413269042969 356.0
107.07820129394531 92.0
108.0810546875 934.0
110.06101989746094 825.0
112.0767822265625 1468.0
114.09285736083984 350.0
116.07548522949219 185.0
118.08739471435547 219.0
124.07673645019531 933.0
126.0903549194336 764.0
128.07252502441406 857.0
130.08775329589844 1071.0
136.0723114013672 289.0
140.0708770751953 737.0
142.08267211914062 1107.0
146.08316040039062 6179.0
154.08694458007812 658.0
172.09446716308594 1549.0
190.1068878173828 2445.0
208.11985778808594 2667.0

Name: SN-38
Precursor_mz: 393.1437081
Cas: 86639-52-3
Adduct: [M+H]+
Mz: 393.1444982
Comment: Major
Smiles: CCc1c2c(nc3ccc(O)cc13)-c1cc3c(c(=O)n1C2)COC(=O)[C@]3(O)CC
Formula: C22H20N2O5
Mix: Alkaloids-pos-mix9
Rt: [3.021]
Rt_apex: 3.022823639
Rt_start: 2.939016667
Rt_end: 3.655883333
Ms1_intensity: 2620801
N_scnas: 126
Ms1_scan_range: [764, 777, 891]
Reci_snr: 7.28e-05
Ms2_scan_idx: 1501
Pmz_offset: 0.00024427
Entropy: 0.9882320761680603
Num Peaks: 96
57.03363037109375 2466.0
115.054443359375 233.0
183.06312561035156 244.0
184.07272338867188 457.0
185.08126831054688 241.0
186.0906524658203 497.0
195.0908660888672 3558.0
197.07162475585938 9393.0
198.07957458496094 1179.0
204.0790252685547 244.0
205.07456970214844 275.0
206.0846405029297 284.0
209.089111328125 339.0
210.0744171142578 673.0
211.0865020751953 4830.0
212.09693908691406 30184.0
213.10568237304688 2487.0
219.0920867919922 178.0
220.07359313964844 1472.0
221.07398986816406 523.0
222.08920288085938 683.0
223.09835815429688 351.0
224.1097869873047 438.0
225.1045684814453 6373.0
226.11209106445312 878.0
227.11976623535156 764.0
233.08209228515625 443.0
234.08154296875 3125.0
235.0917205810547 6563.0
236.095458984375 1042.0
237.1121368408203 445.0
238.1158447265625 919.0
239.1195068359375 738.0
246.0941162109375 801.0
247.0901641845703 2045.0
248.1014862060547 4373.0
249.1038055419922 51806.0
250.1170196533203 8212.0
251.11671447753906 1562.0
253.12879943847656 386.0
259.0844421386719 178.0
260.1064147949219 427.0
261.10546875 1913.0
262.1109619140625 1000.0
263.118408203125 19198.0
264.1277770996094 49646.0
265.1344909667969 16371.0
266.1133728027344 209.0
267.1468200683594 321.0
273.0995178222656 1002.0
274.1185607910156 367.0
275.1185302734375 1753.0
276.129638671875 1053.0
277.1029052734375 8590.0
278.1082763671875 5558.0
279.12017822265625 1897.0
280.1245422363281 304.0
287.1198425292969 671.0
288.1289367675781 1573.0
289.1302490234375 1047.0
290.1117858886719 1284.0
291.1165466308594 10083.0
292.123046875 18921.0
293.1312561035156 53871.0
294.1436462402344 457.0
295.14569091796875 438.0
301.101318359375 592.0
303.1526794433594 4015.0
304.12835693359375 659.0
305.1203308105469 2378.0
306.1335144042969 2640.0
307.1065979003906 667.0
308.1206359863281 405.0
315.1112060546875 569.0
316.11590576171875 1317.0
317.09222412109375 176.0
318.1050720214844 284.0
319.1145324707031 4833.0
320.113037109375 2032.0
321.160888671875 18087.0
331.1458740234375 2335.0
332.1297607421875 305.0
333.1227722167969 3370.0
334.130126953125 11510.0
335.1055908203125 770.0
336.1081848144531 953.0
337.14581298828125 550.0
347.1416320800781 3093.0
348.0914001464844 948.0
349.1578063964844 496734.0
363.1027526855469 602.0
364.1089172363281 6105.0
365.1244812011719 625.0
375.12420654296875 1095.0
391.9451904296875 353.0
393.1490783691406 242320.0

Name: Scopolamine butylbromide
Precursor_mz: 360.2163093
Cas: 149-64-4
Adduct: [M]+
Mz: 360.2169349
Comment: Major
Smiles: CCCC[N+]1(C)[C@H]2C[C@H](OC(=O)[C@H](CO)c3ccccc3)C[C@@H]1[C@H]1O[C@@H]21
Formula: C21H30NO4+
Mix: Alkaloids-pos-mix9
Rt: [2.412]
Rt_apex: 2.664057543
Rt_start: 2.618216667
Rt_end: 2.954366667
Ms1_intensity: 6677421
N_scnas: 51
Ms1_scan_range: [715, 722, 767]
Reci_snr: 4.17e-05
Ms2_scan_idx: 1242
Pmz_offset: 0.002082539
Entropy: 0.9989331960678101
Num Peaks: 92
41.04012680053711 9120.0
42.034976959228516 17241.0
43.019649505615234 1036.0
44.050174713134766 18268.0
46.029685974121094 93.0
50.01595687866211 93.0
51.02435302734375 1045.0
53.03862762451172 962.0
55.05335998535156 1169.0
56.051170349121094 760.0
57.07065963745117 6078.0
58.06511688232422 581.0
59.03904724121094 222.0
60.043907165527344 550.0
65.03800964355469 288.0
67.055419921875 4101.0
68.05078125 2630.0
69.06864166259766 439.0
70.06468963623047 5738.0
72.04601287841797 1809.0
73.03084564208984 693.0
74.06221008300781 2760.0
77.03948211669922 28973.0
78.03544616699219 580.0
79.05526733398438 68825.0
80.04906463623047 3758.0
81.07054138183594 6857.0
82.06671905517578 27682.0
83.05106353759766 10024.0
84.08116912841797 10784.0
86.09661102294922 1509.0
88.07401275634766 217.0
91.05542755126953 21938.0
92.0517349243164 398.0
93.06970977783203 12700.0
94.06605529785156 64775.0
95.07180786132812 4201.0
96.08291625976562 10770.0
97.05650329589844 14506.0
98.06001281738281 145908.0
99.0449447631836 207.0
100.10779571533203 197.0
102.04627227783203 2271.0
103.05524444580078 464619.0
105.05642700195312 521.0
106.06279754638672 908.0
107.05072784423828 8260.0
108.08116149902344 13235.0
109.09015655517578 1948.0
110.09646606445312 110788.0
112.07838439941406 710.0
113.05806732177734 560.0
114.05400085449219 809.0
115.0648422241211 1013.0
118.06464385986328 706.0
120.0828857421875 35300.0
121.06598663330078 318698.0
122.09806823730469 39982.0
123.06757354736328 1355.0
124.1128158569336 1545.0
125.05731964111328 358.0
126.12987518310547 3441.0
128.1060028076172 448.0
130.12631225585938 967.0
131.04678344726562 360.0
136.1133575439453 1912.0
137.08267211914062 511.0
138.0933380126953 416480.0
139.1044158935547 445.0
140.1092071533203 13795.0
150.12384033203125 169.0
152.107666015625 1177.0
154.1254119873047 13865.0
156.10385131835938 188955.0
164.14739990234375 1483.0
166.1636199951172 847.0
170.12315368652344 230.0
194.15679931640625 314754.0
210.15145874023438 566.0
212.168212890625 39579.0
258.1566162109375 600.0
274.1484375 314.0
286.15252685546875 206.0
288.1595458984375 4997.0
304.1573791503906 12896.0
330.20892333984375 1095.0
359.1289367675781 1199.0
360.2227783203125 415842.0
361.4169616699219 485.0
361.6464538574219 301.0
361.758544921875 161.0
365.84033203125 93.0

Name: Aminophylline
Precursor_mz: 181.0718731
Cas: 317-34-0
Adduct: [M+H]+
Mz: 181.072002
Comment: Major
Smiles: Cn1c(=O)c2[nH]cnc2n(C)c1=O
Formula: C7H8N4O2
Mix: Alkaloids-pos-mix9
Rt: nan
Rt_apex: 1.556903691
Rt_start: 1.521883333
Rt_end: 1.665616667
Ms1_intensity: 780067
N_scnas: 32
Ms1_scan_range: [497, 505, 530]
Reci_snr: 0.000624335
Ms2_scan_idx: 644
Pmz_offset: 0.00047146
Entropy: 0.98485267162323
Num Peaks: 31
40.01902770996094 154.0
41.02666473388672 180.0
42.034088134765625 37804.0
52.01652145385742 123.0
53.014129638671875 93.0
54.020179748535156 803.0
55.028404235839844 428.0
66.03206634521484 92.0
67.03132629394531 455.0
69.044189453125 15862.0
80.01520538330078 92.0
81.04279327392578 622.0
82.0171890258789 123.0
83.02297973632812 870.0
93.04267883300781 267.0
94.04024505615234 898.0
95.0226058959961 443.0
96.05545806884766 16083.0
97.03858184814453 574.0
106.03972625732422 123.0
108.05787658691406 267.0
109.0286636352539 2766.0
110.07149505615234 268.0
120.05680084228516 177.0
121.05524444580078 198.0
122.03301239013672 322.0
124.05191802978516 46039.0
137.08274841308594 300.0
142.06114196777344 93.0
149.04608154296875 262.0
181.07481384277344 9810.0

Name: Berbamine dihydrochloride
Precursor_mz: 609.2958469
Cas: 6078-17-7
Adduct: [M+H]+
Mz: 609.2959135
Comment: Major
Smiles: COc1cc2c3cc1Oc1c(OC)c(OC)cc4c1[C@@H](Cc1ccc(O)c(c1)Oc1ccc(cc1)C[C@@H]3N(C)CC2)N(C)CC4
Formula: C37H40N2O6
Mix: Alkaloids-pos-mix9
Rt: [2.456, 2.353]
Rt_apex: 2.450935762
Rt_start: 2.4119
Rt_end: 2.671383333
Ms1_intensity: 1067479
N_scnas: 38
Ms1_scan_range: [684, 690, 723]
Reci_snr: 0.0151857
Ms2_scan_idx: 1081
Pmz_offset: 0.002070723
Entropy: 0.87593013048172
Num Peaks: 146
44.05116271972656 533.0
58.065189361572266 328.0
91.0555419921875 229.0
115.05294799804688 236.0
121.06304931640625 483.0
131.0453338623047 313.0
133.08859252929688 194.0
137.05654907226562 889.0
143.04811096191406 557.0
144.0788116455078 314.0
145.08787536621094 569.0
146.09535217285156 3199.0
147.077392578125 232.0
148.0729522705078 2023.0
149.0581817626953 194.0
151.0763702392578 503.0
159.0741424560547 265.0
160.07571411132812 789.0
161.08221435546875 361.0
162.09007263183594 2294.0
163.0813751220703 215.0
172.07643127441406 199.0
174.09434509277344 6173.0
175.09564208984375 1067.0
176.10353088378906 3647.0
177.07508850097656 445.0
178.0867919921875 997.0
188.10804748535156 290.0
189.10057067871094 233.0
190.08795166015625 2958.0
191.0934295654297 6063.0
192.10543823242188 13751.0
194.08665466308594 185.0
204.1051025390625 624.0
205.1067352294922 283.0
206.08665466308594 410.0
207.08506774902344 226.0
211.07427978515625 246.0
213.0913543701172 732.0
219.0817108154297 385.0
223.07740783691406 315.0
225.08984375 263.0
227.10708618164062 1436.0
235.07452392578125 448.0
237.0840606689453 574.0
238.10287475585938 333.0
239.1064910888672 481.0
241.12008666992188 481.0
249.0905303955078 400.0
250.1014862060547 294.0
251.10560607910156 413.0
252.1139678955078 520.0
253.08639526367188 378.0
255.1018524169922 423.0
264.0958557128906 241.0
265.0910949707031 395.0
267.1009521484375 624.0
268.1133117675781 396.0
269.1160888671875 302.0
277.105224609375 339.0
278.1176452636719 496.0
279.1225280761719 802.0
280.1057434082031 1035.0
281.13775634765625 491.0
282.1315612792969 176.0
283.096435546875 248.0
294.11236572265625 496.0
295.0975036621094 213.0
296.10601806640625 402.0
306.1310729980469 198.0
308.12066650390625 253.0
310.1488037109375 310.0
324.11761474609375 338.0
326.13427734375 297.0
327.1437072753906 244.0
335.1390075683594 405.0
336.1159362792969 322.0
338.1385803222656 684.0
340.1517639160156 292.0
349.14996337890625 262.0
350.1575927734375 211.0
351.1614074707031 796.0
352.1587829589844 451.0
357.15618896484375 297.0
359.12408447265625 189.0
365.15667724609375 304.0
366.0394592285156 213.0
367.1652526855469 77669.0
369.18743896484375 493.0
371.1637878417969 288.0
373.14544677734375 375.0
375.15411376953125 313.0
381.1795654296875 518.0
382.1939697265625 4063.0
384.1662902832031 638.0
385.1433410644531 1550.0
386.1767883300781 175.0
387.1563720703125 588.0
398.1734924316406 386.0
399.1485595703125 396.0
400.18658447265625 792.0
401.1584777832031 275.0
402.2047424316406 287.0
411.1500549316406 280.0
415.1490783691406 169.0
416.1819152832031 421.0
418.20550537109375 453.0
432.2134704589844 362.0
442.1955871582031 198.0
472.2064514160156 956.0
500.17877197265625 206.0
503.25604248046875 338.0
505.20343017578125 177.0
514.1978149414062 381.0
515.2102661132812 188.0
516.1917724609375 211.0
518.243896484375 236.0
520.21044921875 640.0
523.2105712890625 659.0
530.19921875 220.0
531.1852416992188 458.0
532.207763671875 497.0
534.2200927734375 812.0
535.2227783203125 1564.0
536.2199096679688 228.0
537.2310180664062 194.0
545.2426147460938 398.0
546.22607421875 8887.0
547.2071533203125 1453.0
548.24169921875 547.0
549.2443237304688 488.0
550.2544555664062 406.0
551.23583984375 303.0
560.2406005859375 240.0
561.2507934570312 259.0
562.2219848632812 1276.0
563.2406616210938 1200.0
564.2335205078125 307.0
566.2520141601562 19314.0
577.2714233398438 1725.0
580.2828979492188 938.0
593.2714233398438 608.0
609.2960815429688 614138.0
610.8974609375 176.0
611.0188598632812 156.0
611.1576538085938 203.0

Name: (R)-Fangchinoline
Precursor_mz: 609.2958469
Cas: 33889-68-8
Adduct: [M+H]+
Mz: 609.2959135
Comment: Major
Smiles: COc1ccc2cc1Oc1ccc(cc1)C[C@H]1c3cc(c(OC)cc3CCN1C)Oc1c(O)c(OC)cc3c1[C@@H](C2)N(C)CC3
Formula: C37H40N2O6
Mix: Alkaloids-pos-mix9
Rt: [2.456, 2.353]
Rt_apex: 2.450935762
Rt_start: 2.4119
Rt_end: 2.671383333
Ms1_intensity: 1067479
N_scnas: 38
Ms1_scan_range: [684, 690, 723]
Reci_snr: 0.0151857
Ms2_scan_idx: 1081
Pmz_offset: 0.002070723
Entropy: 0.87593013048172
Num Peaks: 146
44.05116271972656 533.0
58.065189361572266 328.0
91.0555419921875 229.0
115.05294799804688 236.0
121.06304931640625 483.0
131.0453338623047 313.0
133.08859252929688 194.0
137.05654907226562 889.0
143.04811096191406 557.0
144.0788116455078 314.0
145.08787536621094 569.0
146.09535217285156 3199.0
147.077392578125 232.0
148.0729522705078 2023.0
149.0581817626953 194.0
151.0763702392578 503.0
159.0741424560547 265.0
160.07571411132812 789.0
161.08221435546875 361.0
162.09007263183594 2294.0
163.0813751220703 215.0
172.07643127441406 199.0
174.09434509277344 6173.0
175.09564208984375 1067.0
176.10353088378906 3647.0
177.07508850097656 445.0
178.0867919921875 997.0
188.10804748535156 290.0
189.10057067871094 233.0
190.08795166015625 2958.0
191.0934295654297 6063.0
192.10543823242188 13751.0
194.08665466308594 185.0
204.1051025390625 624.0
205.1067352294922 283.0
206.08665466308594 410.0
207.08506774902344 226.0
211.07427978515625 246.0
213.0913543701172 732.0
219.0817108154297 385.0
223.07740783691406 315.0
225.08984375 263.0
227.10708618164062 1436.0
235.07452392578125 448.0
237.0840606689453 574.0
238.10287475585938 333.0
239.1064910888672 481.0
241.12008666992188 481.0
249.0905303955078 400.0
250.1014862060547 294.0
251.10560607910156 413.0
252.1139678955078 520.0
253.08639526367188 378.0
255.1018524169922 423.0
264.0958557128906 241.0
265.0910949707031 395.0
267.1009521484375 624.0
268.1133117675781 396.0
269.1160888671875 302.0
277.105224609375 339.0
278.1176452636719 496.0
279.1225280761719 802.0
280.1057434082031 1035.0
281.13775634765625 491.0
282.1315612792969 176.0
283.096435546875 248.0
294.11236572265625 496.0
295.0975036621094 213.0
296.10601806640625 402.0
306.1310729980469 198.0
308.12066650390625 253.0
310.1488037109375 310.0
324.11761474609375 338.0
326.13427734375 297.0
327.1437072753906 244.0
335.1390075683594 405.0
336.1159362792969 322.0
338.1385803222656 684.0
340.1517639160156 292.0
349.14996337890625 262.0
350.1575927734375 211.0
351.1614074707031 796.0
352.1587829589844 451.0
357.15618896484375 297.0
359.12408447265625 189.0
365.15667724609375 304.0
366.0394592285156 213.0
367.1652526855469 77669.0
369.18743896484375 493.0
371.1637878417969 288.0
373.14544677734375 375.0
375.15411376953125 313.0
381.1795654296875 518.0
382.1939697265625 4063.0
384.1662902832031 638.0
385.1433410644531 1550.0
386.1767883300781 175.0
387.1563720703125 588.0
398.1734924316406 386.0
399.1485595703125 396.0
400.18658447265625 792.0
401.1584777832031 275.0
402.2047424316406 287.0
411.1500549316406 280.0
415.1490783691406 169.0
416.1819152832031 421.0
418.20550537109375 453.0
432.2134704589844 362.0
442.1955871582031 198.0
472.2064514160156 956.0
500.17877197265625 206.0
503.25604248046875 338.0
505.20343017578125 177.0
514.1978149414062 381.0
515.2102661132812 188.0
516.1917724609375 211.0
518.243896484375 236.0
520.21044921875 640.0
523.2105712890625 659.0
530.19921875 220.0
531.1852416992188 458.0
532.207763671875 497.0
534.2200927734375 812.0
535.2227783203125 1564.0
536.2199096679688 228.0
537.2310180664062 194.0
545.2426147460938 398.0
546.22607421875 8887.0
547.2071533203125 1453.0
548.24169921875 547.0
549.2443237304688 488.0
550.2544555664062 406.0
551.23583984375 303.0
560.2406005859375 240.0
561.2507934570312 259.0
562.2219848632812 1276.0
563.2406616210938 1200.0
564.2335205078125 307.0
566.2520141601562 19314.0
577.2714233398438 1725.0
580.2828979492188 938.0
593.2714233398438 608.0
609.2960815429688 614138.0
610.8974609375 176.0
611.0188598632812 156.0
611.1576538085938 203.0

Name: Trigonelline
Precursor_mz: 138.0550444
Cas: 535-83-1
Adduct: [M+H]+
Mz: 138.0549549
Comment: Major
Smiles: C[n+]1cccc(C(=O)[O-])c1
Formula: C7H7NO2
Mix: Alkaloids-pos-mix9
Rt: [0.293]
Rt_apex: 0.290361808
Rt_start: 0.25755
Rt_end: 0.4932
Ms1_intensity: 560220
N_scnas: 52
Ms1_scan_range: [91, 96, 144]
Reci_snr: 0.006402342
Ms2_scan_idx: 153
Pmz_offset: 0.001648768
Entropy: 0.9939368367195129
Num Peaks: 34
40.03141784667969 166.0
41.038307189941406 1273.0
42.03313446044922 1733.0
44.99869155883789 83.0
49.00777816772461 31.0
50.01493835449219 763.0
51.02332305908203 2946.0
52.0306396484375 2169.0
53.03860092163086 2858.0
54.03559875488281 56.0
63.02353286743164 31.0
65.03910827636719 7302.0
66.0342788696289 1210.0
67.05423736572266 1098.0
68.05075073242188 64.0
76.02051544189453 73.0
77.03944396972656 340.0
78.03416442871094 6475.0
79.04150390625 3879.0
80.05027770996094 862.0
90.03520202636719 25.0
91.04065704345703 69.0
92.05034637451172 17923.0
93.05883026123047 4296.0
94.06464385986328 16445.0
96.04298400878906 188.0
105.02473449707031 61.0
106.02661895751953 25.0
108.04463958740234 42.0
110.06402587890625 424.0
120.04438018798828 240.0
124.03929138183594 25.0
137.64015197753906 103.0
138.0553436279297 16790.0

Name: Tetrahydropalmatine hydrochloride
Precursor_mz: 356.1854194
Cas: 6024-85-7
Adduct: [M+H]+
Mz: 356.1856347
Comment: Major
Smiles: COc1cc2c(cc1OC)C1Cc3ccc(OC)c(OC)c3CN1CC2
Formula: C21H25NO4
Mix: Alkaloids-pos-mix9
Rt: [2.719]
Rt_apex: 2.719623142
Rt_start: 2.671383333
Rt_end: 2.96085
Ms1_intensity: 5381886
N_scnas: 44
Ms1_scan_range: [723, 730, 768]
Reci_snr: 5.88e-05
Ms2_scan_idx: 1286
Pmz_offset: 0.000417761
Entropy: 0.962081253528595
Num Peaks: 167
42.035072326660156 187.0
44.04841232299805 597.0
57.03369140625 357.0
75.0438232421875 189.0
77.0384292602539 3088.0
78.0455322265625 438.0
79.05294799804688 4829.0
89.03690338134766 836.0
90.04344177246094 901.0
91.0542984008789 5618.0
92.06136322021484 548.0
93.06991577148438 761.0
102.04791259765625 1241.0
103.05404663085938 9578.0
104.06082153320312 1519.0
105.07105255126953 18329.0
106.03990936279297 199.0
107.04951477050781 6619.0
108.05661010742188 566.0
109.06694793701172 634.0
115.05306243896484 1088.0
116.06074523925781 302.0
117.05764770507812 1094.0
118.06643676757812 3290.0
119.04739379882812 3064.0
120.05701446533203 3061.0
121.0662612915039 8632.0
122.07198333740234 1645.0
123.08341979980469 218.0
124.04900360107422 630.0
127.05065155029297 265.0
128.06500244140625 455.0
129.06903076171875 297.0
130.06417846679688 7661.0
131.0743865966797 59588.0
132.057861328125 999.0
133.064453125 13474.0
134.07322692871094 10220.0
135.0466766357422 11635.0
136.0514678955078 2121.0
137.05833435058594 910.0
138.0722198486328 399.0
139.0732879638672 689.0
143.04824829101562 288.0
144.05706787109375 357.0
145.06773376464844 598.0
146.0632781982422 3937.0
147.06732177734375 10181.0
148.07481384277344 113368.0
149.06175231933594 3367.0
150.06744384765625 112871.0
151.07479858398438 16567.0
152.08551025390625 183.0
157.0559539794922 213.0
158.06704711914062 1754.0
159.0672149658203 26496.0
160.07765197753906 11617.0
161.0841522216797 4516.0
162.05807495117188 930.0
163.07257080078125 714.0
164.0812530517578 969.0
165.09303283691406 308507.0
166.09706115722656 153.0
172.07476806640625 276.0
173.08316040039062 476.0
174.05747985839844 5687.0
175.06980895996094 1847.0
176.07205200195312 238511.0
177.07901000976562 214962.0
178.0813446044922 273.0
179.107177734375 760.0
180.10203552246094 507.0
188.07553100585938 436.0
189.0911102294922 5118.0
190.088134765625 38356.0
191.09361267089844 1472.0
192.1036834716797 1423656.0
193.1456756591797 978.0
195.091064453125 270.0
202.08543395996094 279.0
203.0841064453125 463.0
204.1053009033203 5971.0
205.1109619140625 6822.0
206.11708068847656 241.0
207.08526611328125 273.0
208.09014892578125 207.0
209.09744262695312 241.0
218.07154846191406 293.0
219.08401489257812 530.0
220.09255981445312 258.0
221.09300231933594 672.0
222.09988403320312 402.0
223.07972717285156 153.0
224.08482360839844 191.0
231.08560180664062 263.0
232.08717346191406 385.0
233.09519958496094 826.0
234.0989532470703 767.0
235.0790557861328 565.0
236.1021728515625 453.0
237.088623046875 809.0
238.09445190429688 396.0
239.10890197753906 359.0
243.12266540527344 208.0
245.1025390625 200.0
246.1075897216797 208.0
247.1080780029297 420.0
248.10838317871094 381.0
249.08856201171875 1625.0
250.09507751464844 1430.0
251.1036376953125 1029.0
252.1142120361328 506.0
253.11566162109375 537.0
254.1168670654297 179.0
261.0853271484375 628.0
262.0998840332031 596.0
263.1027526855469 1054.0
264.1143493652344 1964.0
265.1187744140625 3186.0
266.09991455078125 702.0
267.103515625 775.0
268.1090087890625 351.0
269.11407470703125 290.0
270.1487121582031 206.0
275.1327819824219 1434.0
276.11358642578125 458.0
277.12420654296875 903.0
278.1156005859375 1336.0
279.1204833984375 1165.0
280.1318664550781 2612.0
281.1168518066406 2730.0
282.12713623046875 770.0
283.1297912597656 369.0
284.12237548828125 191.0
288.0982666015625 210.0
290.12164306640625 935.0
291.1048583984375 526.0
292.10894775390625 1238.0
293.11956787109375 7947.0
294.1222839355469 1928.0
295.1339416503906 1654.0
296.1401062011719 3510.0
297.12139892578125 1521.0
298.1454772949219 3204.0
306.11419677734375 1875.0
307.1265869140625 839.0
308.1357421875 17212.0
309.11199951171875 3561.0
310.14910888671875 2538.0
311.1483459472656 1094.0
312.1566162109375 5072.0
313.1441955566406 733.0
322.1477966308594 6591.0
323.153564453125 1851.0
324.14825439453125 5408.0
325.13433837890625 1786.0
326.13714599609375 4742.0
327.1668701171875 3043.0
339.1589660644531 3849.0
340.1546936035156 31385.0
341.1673889160156 9316.0
354.1686706542969 590.0
355.09625244140625 2066.0
356.189208984375 790600.0
357.1645202636719 1006.0
357.38201904296875 616.0
357.6048889160156 441.0

Name: Jatrorrhizine hydrochloride
Precursor_mz: 338.1384337
Cas: 960383-96-4
Adduct: [M]+
Mz: 338.1386845
Comment: Major
Smiles: COc1cc2c(cc1O)CC[n+]1cc3c(OC)c(OC)ccc3cc1-2
Formula: C20H20NO4+
Mix: Alkaloids-pos-mix9
Rt: [2.702]
Rt_apex: 2.696716105
Rt_start: 2.631883333
Rt_end: 2.9479
Ms1_intensity: 6167959
N_scnas: 48
Ms1_scan_range: [717, 727, 766]
Reci_snr: 0.000829882
Ms2_scan_idx: 1269
Pmz_offset: 0.001952782
Entropy: 0.9979947209358215
Num Peaks: 72
139.0500030517578 295.0
152.05943298339844 244.0
165.0694580078125 268.0
178.06248474121094 738.0
179.07510375976562 184.0
180.07742309570312 333.0
190.05897521972656 412.0
191.0760040283203 684.0
192.07630920410156 296.0
196.0721893310547 202.0
204.08509826660156 742.0
205.0886993408203 410.0
206.06253051757812 334.0
207.06492614746094 386.0
208.0758056640625 1455.0
209.08511352539062 267.0
217.08401489257812 303.0
219.06723022460938 506.0
220.0736541748047 1867.0
221.0823974609375 1094.0
222.09344482421875 11012.0
223.10260009765625 841.0
224.10565185546875 178.0
227.1007843017578 277.0
232.0784454345703 493.0
233.0843048095703 1913.0
234.094482421875 4678.0
235.068115234375 471.0
236.07395935058594 15427.0
237.0819549560547 27156.0
238.09425354003906 163.0
246.09417724609375 438.0
247.05935668945312 218.0
248.0750274658203 1221.0
249.08172607421875 1020.0
250.0860137939453 41826.0
251.09677124023438 40365.0
252.1073455810547 1172.0
260.0725402832031 321.0
261.071533203125 785.0
262.0860595703125 38645.0
263.0979919433594 8094.0
264.0639953613281 3701.0
265.0751647949219 216426.0
266.11572265625 863.0
276.0667419433594 4112.0
277.1099853515625 49646.0
278.0849609375 31339.0
279.08978271484375 493578.0
280.0987548828125 401619.0
290.0783996582031 1195.0
291.09027099609375 66390.0
292.0607604980469 1219.0
293.10491943359375 21717.0
294.1148376464844 761073.0
295.1216735839844 1768.0
304.0623779296875 396.0
305.0689392089844 28468.0
306.11395263671875 210565.0
307.0870056152344 304872.0
308.0936279296875 422235.0
309.11669921875 182.0
320.0930480957031 41226.0
321.11822509765625 1920.0
322.1097717285156 960425.0
323.11798095703125 636727.0
337.0995178222656 2353.0
338.1412353515625 815641.0
339.0966796875 1968.0
339.2207336425781 2259.0
339.5257873535156 608.0
339.9085998535156 164.0

Name: Bicuculline
Precursor_mz: 368.1130816
Cas: 485-49-4
Adduct: [M+H]+
Mz: 368.1128637
Comment: Major
Smiles: CN1CCc2cc3c(cc2[C@H]1[C@@H]1OC(=O)c2c1ccc1c2OCO1)OCO3
Formula: C20H17NO6
Mix: Alkaloids-pos-mix9
Rt: [2.326]
Rt_apex: 2.323174921
Rt_start: 2.2384
Rt_end: 2.3989
Ms1_intensity: 1979188
N_scnas: 23
Ms1_scan_range: [658, 670, 682]
Reci_snr: 7.72e-05
Ms2_scan_idx: 969
Pmz_offset: 0.002223373
Entropy: 0.9919769167900085
Num Peaks: 105
42.03497314453125 459.0
44.0501708984375 15331.0
91.0540771484375 1517.0
103.05380249023438 742.0
115.05429077148438 222.0
118.06310272216797 288.0
119.05170440673828 1355.0
121.02891540527344 632.0
130.06866455078125 244.0
131.0499725341797 600.0
132.08335876464844 243.0
135.04798889160156 933.0
139.0531005859375 182.0
147.04144287109375 474.0
149.06654357910156 3458.0
150.04473876953125 256.0
151.05201721191406 466.0
152.0661163330078 811.0
153.06971740722656 466.0
159.0491485595703 1179.0
160.0754852294922 796.0
161.0570526123047 735.0
162.04876708984375 255.0
163.0542755126953 12480.0
164.06468200683594 1036.0
165.0709991455078 16726.0
167.091064453125 394.0
174.04966735839844 661.0
175.04898071289062 1660.0
176.073486328125 12172.0
177.01882934570312 2918.0
178.07717895507812 237.0
179.03350830078125 684.0
181.0633544921875 868.0
187.0430450439453 621.0
188.07122802734375 5530.0
189.0771484375 9299.0
190.08963012695312 42692.0
191.04855346679688 16700.0
192.0546112060547 782.0
193.0652618408203 10256.0
195.082763671875 1037.0
203.04563903808594 678.0
204.0667266845703 255.0
205.0682830810547 5110.0
207.08477783203125 616.0
208.05523681640625 216.0
209.0624542236328 1573.0
211.07603454589844 319.0
217.0774688720703 319.0
219.04818725585938 11906.0
220.052490234375 449.0
221.06118774414062 19248.0
222.0742645263672 508.0
223.0749969482422 6199.0
225.05584716796875 193.0
231.04025268554688 947.0
233.0646514892578 11373.0
235.07635498046875 2306.0
237.05564880371094 1463.0
239.07579040527344 804.0
245.07119750976562 451.0
247.0391082763672 5142.0
248.05032348632812 363.0
249.05917358398438 161248.0
250.06564331054688 257.0
251.07191467285156 6927.0
259.04119873046875 191.0
261.0574951171875 21468.0
262.065185546875 414.0
263.0725402832031 2366.0
264.0498962402344 167.0
265.0518798828125 594.0
266.0626525878906 1088.0
267.0707702636719 3384.0
273.05743408203125 360.0
275.0785827636719 408.0
277.0511474609375 193536.0
278.05877685546875 836.0
279.0682373046875 40295.0
280.0771789550781 175.0
281.0856018066406 1493.0
289.0511169433594 14711.0
290.06121826171875 467.0
291.07305908203125 4172.0
292.07708740234375 1910.0
293.0804138183594 727.0
295.0609436035156 4186.0
297.0892333984375 285.0
303.0692138671875 2351.0
305.0537414550781 240.0
306.1159362792969 729.0
307.06439208984375 271054.0
309.07672119140625 1929.0
319.06396484375 19131.0
320.05487060546875 1396.0
321.0824890136719 652.0
325.07537841796875 3855.0
332.0909423828125 567.0
334.0706787109375 418.0
335.08203125 1985.0
337.0757751464844 2407.0
350.1098327636719 979.0
366.984619140625 181.0
368.11456298828125 71244.0

Name: Bicuculline
Precursor_mz: 390.0932542
Cas: 485-49-4
Adduct: [M+Na]+
Mz: 390.094808
Comment: Major
Smiles: CN1CCc2cc3c(cc2[C@H]1[C@@H]1OC(=O)c2c1ccc1c2OCO1)OCO3
Formula: C20H17NO6
Mix: Alkaloids-pos-mix9
Rt: [2.326]
Rt_apex: 2.31998069
Rt_start: 2.266083333
Rt_end: 2.3989
Ms1_intensity: 14149
N_scnas: 19
Ms1_scan_range: [662, 670, 682]
Reci_snr: 0.032612985
Ms2_scan_idx: 989
Pmz_offset: 0.000714999
Entropy: 0.9999999403953552
Num Peaks: 4
160.07740783691406 62.0
175.0677032470703 62.0
190.08204650878906 1614.0
390.0885925292969 123.0

Name: (-)-Huperzine A
Precursor_mz: 243.1490287
Cas: 102518-79-6
Adduct: [M+H]+
Mz: 243.1491897
Comment: Major
Smiles: CC=C1[C@H]2C=C(C)C[C@]1(N)c1ccc(=O)[nH]c1C2
Formula: C15H18N2O
Mix: Alkaloids-pos-mix10
Rt: [1.757]
Rt_apex: 1.75194143
Rt_start: 1.71935
Rt_end: 1.998066667
Ms1_intensity: 1322562
N_scnas: 59
Ms1_scan_range: [526, 531, 586]
Reci_snr: 8.65e-05
Ms2_scan_idx: 707
Pmz_offset: 0.001190328
Entropy: 0.9993191361427307
Num Peaks: 120
41.03833770751953 1961.0
42.032257080078125 528.0
43.055564880371094 913.0
44.05205154418945 196.0
51.021366119384766 491.0
53.0396728515625 1655.0
55.05442810058594 753.0
65.03804779052734 1649.0
66.03321075439453 323.0
67.05431365966797 503.0
68.04966735839844 220.0
77.03954315185547 7579.0
78.0354995727539 791.0
79.0540771484375 9124.0
80.05037689208984 4866.0
81.06807708740234 1008.0
82.03118896484375 262.0
89.03678131103516 2332.0
90.03399658203125 341.0
91.0528335571289 5957.0
92.04912567138672 3427.0
93.06843566894531 2372.0
94.0661392211914 308.0
95.0513687133789 282.0
96.04586791992188 579.0
101.03953552246094 717.0
102.04920196533203 265.0
103.05391693115234 1930.0
104.04923248291016 2576.0
105.06947326660156 4799.0
106.06578826904297 13034.0
107.07841491699219 317.0
108.0447998046875 3323.0
109.05508422851562 774.0
110.05829620361328 2496.0
113.04027557373047 340.0
114.0316390991211 322.0
115.05291748046875 12848.0
116.0500259399414 6174.0
117.05750274658203 2287.0
118.06629180908203 4807.0
119.07481384277344 5130.0
120.0799331665039 1103.0
126.04649353027344 926.0
127.05208587646484 8638.0
128.06326293945312 11755.0
129.06887817382812 7841.0
130.0624237060547 5414.0
131.08387756347656 870.0
132.04159545898438 2867.0
133.05296325683594 3937.0
134.0616912841797 7929.0
135.05467224121094 1225.0
136.07749938964844 123.0
137.06967163085938 439.0
139.0532684326172 3960.0
140.05123901367188 5633.0
141.06944274902344 10867.0
142.0779571533203 4466.0
143.08334350585938 5031.0
144.0804901123047 2768.0
145.0658721923828 568.0
146.05972290039062 6677.0
147.06886291503906 1474.0
150.04664611816406 1051.0
151.05564880371094 11002.0
152.0611114501953 10498.0
153.06991577148438 11484.0
154.0646209716797 66193.0
155.0765380859375 8648.0
156.07949829101562 9426.0
157.09095764160156 2640.0
158.059814453125 9323.0
159.06881713867188 274.0
160.0739288330078 1115.0
161.0732879638672 1400.0
163.0544891357422 468.0
164.05950927734375 1556.0
165.0694122314453 34868.0
166.06976318359375 35750.0
167.07313537597656 18785.0
168.08135986328125 48024.0
169.08895874023438 19543.0
170.0959014892578 8508.0
172.07826232910156 5375.0
173.06822204589844 826.0
175.09005737304688 259.0
177.05641174316406 5017.0
178.06617736816406 41673.0
179.07693481445312 6487.0
180.08114624023438 24582.0
182.0638885498047 29101.0
183.07452392578125 10231.0
184.0765380859375 35346.0
185.07554626464844 1604.0
187.0874481201172 5429.0
188.09266662597656 553.0
189.0754852294922 720.0
195.0732421875 1916.0
196.07608032226562 153302.0
197.0834503173828 109376.0
198.09341430664062 25629.0
199.09011840820312 817.0
200.0992431640625 371.0
204.0810546875 376.0
205.08665466308594 426.0
206.09674072265625 6284.0
207.10325622558594 3215.0
208.11221313476562 28623.0
209.09927368164062 5606.0
211.0987548828125 73146.0
212.107177734375 2399.0
213.1016082763672 3667.0
224.1077117919922 15745.0
225.13829040527344 649.0
226.1226806640625 213781.0
227.11767578125 17181.0
228.12757873535156 3995.0
242.4009246826172 322.0
243.15089416503906 141093.0

Name: Cyclopamine
Precursor_mz: 412.3230152
Cas: 4449-51-8
Adduct: [M+H]+
Mz: 412.321006
Comment: Major
Smiles: CC1=C2C[C@H]3[C@@H](CC=C4C[C@@H](O)CC[C@@]43C)[C@@H]2CC[C@]12O[C@@H]1C[C@H](C)CN[C@H]1[C@H]2C
Formula: C27H41NO2
Mix: Alkaloids-pos-mix10
Rt: [3.255]
Rt_apex: 3.256298183
Rt_start: 3.134
Rt_end: 3.79155
Ms1_intensity: 5582934
N_scnas: 124
Ms1_scan_range: [785, 808, 910]
Reci_snr: 3.41e-05
Ms2_scan_idx: 1575
Pmz_offset: 0.002896138
Entropy: 0.9692345857620239
Num Peaks: 144
41.0374641418457 1322.0
42.03410339355469 240.0
43.05467224121094 1510.0
44.05207824707031 182.0
55.055503845214844 1324.0
57.07072830200195 811.0
65.03695678710938 490.0
67.05550384521484 20823.0
69.0710678100586 400.0
70.06713104248047 1616.0
77.03712463378906 758.0
79.05413055419922 1688.0
80.05168151855469 583.0
81.06939697265625 6432.0
82.06555938720703 451.0
83.04734802246094 789.0
84.08129119873047 21003.0
85.06597137451172 10180.0
91.0555648803711 2568.0
93.07119750976562 3966.0
94.06619262695312 295.0
95.0897445678711 1528.0
96.08306121826172 3440.0
98.09908294677734 2252.0
99.07722473144531 291.0
100.07424926757812 541.0
102.091796875 7326.0
105.07097625732422 4398.0
107.08574676513672 4052.0
109.10352325439453 58013.0
110.09959411621094 690.0
111.08096313476562 186.0
112.07856750488281 3263.0
114.0931625366211 60236.0
115.05148315429688 454.0
117.07124328613281 1649.0
119.08560180664062 3613.0
121.1017074584961 2734.0
123.11604309082031 432.0
124.11146545410156 1928.0
125.0951919555664 507.0
126.13008880615234 18649.0
127.05374908447266 252.0
128.06333923339844 906.0
129.0721435546875 943.0
130.076904296875 276.0
131.08395385742188 2319.0
133.1016082763672 9813.0
135.11672973632812 1804.0
140.1094512939453 1849.0
141.07119750976562 1115.0
142.0780487060547 966.0
143.08847045898438 3092.0
144.09405517578125 336.0
145.10147094726562 7743.0
147.11831665039062 2589.0
148.117431640625 292.0
149.13021850585938 471.0
150.13613891601562 534.0
151.1126708984375 1047.0
155.08712768554688 1162.0
156.09185791015625 487.0
157.10336303710938 10923.0
158.111083984375 272.0
159.11669921875 7448.0
161.13217163085938 3142.0
163.1137237548828 683.0
167.0859375 358.0
169.10365295410156 1617.0
170.10333251953125 318.0
171.12063598632812 6216.0
173.13294982910156 3571.0
175.11245727539062 565.0
177.1349639892578 223.0
179.08456420898438 207.0
180.0944366455078 239.0
181.1014862060547 830.0
182.1094512939453 339.0
183.12020874023438 2697.0
184.12615966796875 280.0
185.1348419189453 3135.0
187.15475463867188 768.0
189.1257781982422 252.0
193.1046600341797 196.0
194.11610412597656 317.0
195.11648559570312 1565.0
196.1233673095703 329.0
197.13479614257812 2855.0
198.1409454345703 284.0
199.1476593017578 964.0
201.16477966308594 292.0
203.1460418701172 184.0
207.12155151367188 331.0
209.1339111328125 1292.0
211.1478271484375 1893.0
213.16729736328125 7753.0
215.14080810546875 207.0
219.11302185058594 331.0
221.1367645263672 273.0
223.15721130371094 948.0
225.16790771484375 827.0
227.1791534423828 443.0
229.1696014404297 256.0
235.15000915527344 751.0
237.16851806640625 893.0
239.18479919433594 843.0
241.20089721679688 336.0
247.143310546875 180.0
249.16380310058594 423.0
250.1749267578125 199.0
251.1903076171875 907.0
253.20045471191406 2242.0
261.1669006347656 347.0
263.18463134765625 272.0
264.1941223144531 412.0
265.1986999511719 246.0
269.194580078125 433.0
271.2129821777344 389.0
275.1816101074219 165.0
277.19189453125 335.0
279.2142028808594 3518.0
281.2273864746094 739.0
287.20330810546875 935.0
293.232421875 180.0
295.2134704589844 959.0
297.2229309082031 1528.0
299.2392272949219 394.0
303.21649169921875 205.0
307.2101745605469 591.0
309.23284912109375 345.0
317.2299499511719 485.0
319.2477111816406 257.0
321.2240295410156 5848.0
335.2471923828125 1694.0
337.2569274902344 320.0
359.28662109375 435.0
368.30120849609375 215.0
377.2966003417969 4999.0
394.3217468261719 7099.0
395.2920837402344 464.0
411.05938720703125 1118.0
412.3264465332031 379793.0
413.5926208496094 166.0
413.8495178222656 172.0

Name: Monocrotaline
Precursor_mz: 326.1599716
Cas: 315-22-0
Adduct: [M+H]+
Mz: 326.1598139
Comment: Major
Smiles: C[C@H]1C(=O)O[C@@H]2CCN3CC=C(COC(=O)[C@](C)(O)[C@]1(C)O)[C@H]23
Formula: C16H23NO6
Mix: Alkaloids-pos-mix10
Rt: [1.288]
Rt_apex: 1.285084924
Rt_start: 1.226816667
Rt_end: 1.540116667
Ms1_intensity: 795749
N_scnas: 89
Ms1_scan_range: [387, 401, 477]
Reci_snr: 0.000178525
Ms2_scan_idx: 508
Pmz_offset: 0.002067279
Entropy: 0.9933863878250122
Num Peaks: 80
41.037437438964844 363.0
42.032257080078125 449.0
43.017818450927734 1286.0
44.05018615722656 414.0
53.037628173828125 588.0
57.03889083862305 373.0
65.04031372070312 333.0
66.0457534790039 193.0
67.0439682006836 3855.0
68.04851531982422 2917.0
69.0570297241211 251.0
77.03954315185547 1771.0
78.0354995727539 363.0
79.0540771484375 1744.0
80.04912567138672 5192.0
81.0554428100586 576.0
82.06423950195312 2569.0
84.04521179199219 207.0
85.05426788330078 208.0
86.05892181396484 604.0
87.04591369628906 302.0
91.05416870117188 2495.0
92.05046844482422 1037.0
94.06477355957031 27616.0
95.07463073730469 8323.0
96.08162689208984 3181.0
97.06350708007812 361.0
99.0478286743164 622.0
103.05818939208984 1247.0
104.04779815673828 194.0
105.06947326660156 578.0
106.06578826904297 3264.0
107.0726089477539 574.0
108.08126831054688 3324.0
109.06534576416016 651.0
110.05976867675781 883.0
111.06906127929688 303.0
112.07552337646484 248.0
118.06324005126953 1125.0
119.07174682617188 494.0
120.07992553710938 90761.0
121.08927154541016 61619.0
122.09664154052734 11165.0
123.10662078857422 355.0
125.05902099609375 393.0
135.0840301513672 272.0
136.0758514404297 699.0
138.09019470214844 9469.0
139.0979461669922 2437.0
140.109375 1744.0
142.08966064453125 160.0
146.09364318847656 570.0
148.10879516601562 425.0
150.08963012695312 178.0
153.0751190185547 490.0
156.10052490234375 2498.0
164.10623168945312 7189.0
166.084228515625 693.0
174.08692932128906 206.0
180.1018524169922 567.0
182.11880493164062 1058.0
184.09556579589844 2752.0
192.099609375 507.0
194.11793518066406 17900.0
195.12615966796875 2506.0
208.093994140625 268.0
210.1151123046875 1203.0
212.1276092529297 1079.0
222.1122283935547 742.0
228.1212158203125 908.0
236.12783813476562 339.0
237.1381072998047 14076.0
238.14404296875 3749.0
252.1206817626953 645.0
254.13900756835938 776.0
270.1392517089844 502.0
280.1551208496094 9228.0
298.16461181640625 3516.0
325.1492614746094 532.0
326.1622314453125 168600.0

Name: Monocrotaline
Precursor_mz: 348.1390241
Cas: 315-22-0
Adduct: [M+Na]+
Mz: 348.1417582
Comment: Major
Smiles: C[C@H]1C(=O)O[C@@H]2CCN3CC=C(COC(=O)[C@](C)(O)[C@]1(C)O)[C@H]23
Formula: C16H23NO6
Mix: Alkaloids-pos-mix10
Rt: [1.288]
Rt_apex: 1.289106535
Rt_start: 1.247583333
Rt_end: 1.440916667
Ms1_intensity: 13129
N_scnas: 53
Ms1_scan_range: [395, 402, 449]
Reci_snr: 0.003444624
Ms2_scan_idx: 514
Pmz_offset: 0.00185322
Entropy: 0.7017974257469177
Num Peaks: 5
93.064453125 15.0
120.07849884033203 350.0
227.9963836669922 15.0
238.0446319580078 15.0
348.1441650390625 230.0

Name: Harmine hydrochloride
Precursor_mz: 213.1018615
Cas: 343-27-1
Adduct: [M+H]+
Mz: 213.1022395
Comment: Major
Smiles: COc1ccc2c(c1)[nH]c1c(C)nccc12
Formula: C13H12N2O
Mix: Alkaloids-pos-mix10
Rt: [2.397]
Rt_apex: 2.392777166
Rt_start: 2.338216667
Rt_end: 2.664033333
Ms1_intensity: 5162212
N_scnas: 48
Ms1_scan_range: [656, 664, 705]
Reci_snr: 0.000210191
Ms2_scan_idx: 1019
Pmz_offset: 6.43e-05
Entropy: 0.9855327606201172
Num Peaks: 56
66.04692840576172 421.0
74.01520538330078 184.0
75.02186584472656 344.0
77.04080963134766 1080.0
78.0343017578125 217.0
89.03946685791016 3157.0
90.0486831665039 941.0
91.05421447753906 813.0
92.04647064208984 890.0
93.0562973022461 12262.0
99.0213394165039 197.0
100.0152816772461 254.0
101.03675842285156 3453.0
102.0478286743164 3199.0
103.05253601074219 2435.0
113.03734588623047 464.0
114.04667663574219 536.0
115.05447387695312 25010.0
116.05158996582031 3207.0
117.05603790283203 4572.0
118.06329345703125 9034.0
119.0718002319336 392.0
126.03710174560547 716.0
127.04106903076172 712.0
128.0506134033203 14840.0
129.05618286132812 3337.0
130.0640869140625 1582.0
140.04798889160156 2657.0
141.05784606933594 3043.0
142.06631469726562 17766.0
143.06829833984375 11172.0
144.07717895507812 96511.0
145.06594848632812 961.0
152.04734802246094 1808.0
153.04568481445312 4507.0
154.06295776367188 786.0
155.06263732910156 51613.0
157.05233764648438 338.0
167.06414794921875 991.0
168.06687927246094 15289.0
169.0780792236328 732391.0
170.0850067138672 1111187.0
171.06553649902344 835.0
172.0746612548828 238.0
181.07313537597656 788.0
182.08670043945312 545.0
183.09359741210938 975.0
185.10809326171875 2005.0
197.07566833496094 1188.0
198.08164978027344 801698.0
212.09092712402344 207.0
212.4569091796875 1860.0
213.103759765625 767641.0
213.85829162597656 523.0
214.02044677734375 423.0
214.20114135742188 293.0

Name: Irinotecan
Precursor_mz: 587.287025
Cas: 97682-44-5
Adduct: [M+H]+
Mz: 587.2864114
Comment: Major
Smiles: CCc1c2c(nc3ccc(OC(=O)N4CCC(N5CCCCC5)CC4)cc13)-c1cc3c(c(=O)n1C2)COC(=O)[C@]3(O)CC
Formula: C33H38N4O6
Mix: Alkaloids-pos-mix10
Rt: [2.798]
Rt_apex: 2.799929625
Rt_start: 2.4922
Rt_end: 2.958166667
Ms1_intensity: 2394936
N_scnas: 68
Ms1_scan_range: [680, 726, 749]
Reci_snr: 0.002051912
Ms2_scan_idx: 1135
Pmz_offset: 0.003347762
Entropy: 1.000000238418579
Num Peaks: 7
124.11136627197266 92.0
167.12391662597656 62.0
195.14378356933594 93.0
331.1484680175781 93.0
458.20220947265625 62.0
502.1926574707031 93.0
587.2914428710938 302.0

Name: Vinburnine
Precursor_mz: 295.1812921
Cas: 4880-88-0
Adduct: [M+H]+
Mz: 295.1804898
Comment: Major
Smiles: CC[C@]12CCCN3CCc4c(n(c5ccccc45)C(=O)C1)[C@@H]32
Formula: C19H22N2O
Mix: Alkaloids-pos-mix10
Rt: [2.739]
Rt_apex: 2.733886366
Rt_start: 2.657533333
Rt_end: 2.789683333
Ms1_intensity: 3599396
N_scnas: 19
Ms1_scan_range: [704, 715, 724]
Reci_snr: 7.35e-05
Ms2_scan_idx: 1252
Pmz_offset: 0.002557294
Entropy: 0.9912527203559875
Num Peaks: 156
42.035072326660156 3357.0
43.041839599609375 601.0
44.05027770996094 35019.0
53.040802001953125 490.0
54.03472900390625 546.0
55.055580139160156 1590.0
56.05131149291992 1912.0
57.07186508178711 228.0
58.06526565551758 390.0
67.05559539794922 3018.0
68.04981231689453 1332.0
69.06999969482422 292.0
70.06605529785156 18801.0
72.08194732666016 499.0
77.04093170166016 1262.0
79.05548858642578 3005.0
80.050537109375 986.0
81.06824493408203 735.0
82.06694793701172 2679.0
83.07432556152344 3598.0
84.08269500732422 22277.0
89.03695678710938 180.0
91.05435180664062 4198.0
92.0533447265625 449.0
93.06997680664062 2723.0
94.06360626220703 1914.0
95.08440399169922 5155.0
96.0804443359375 1508.0
98.0992202758789 2499.0
103.05412292480469 631.0
105.06825256347656 2344.0
106.06744384765625 796.0
107.08444213867188 3304.0
108.08148956298828 1553.0
109.09048461914062 671.0
110.0968017578125 2473.0
111.08259582519531 2422.0
112.10992431640625 1007.0
115.05465698242188 1804.0
116.05630493164062 229.0
117.06381225585938 2390.0
118.06195831298828 1260.0
119.07658386230469 942.0
120.08016967773438 380.0
121.06790161132812 1264.0
122.09844207763672 3549.0
123.07884979248047 1619.0
124.07880401611328 5969.0
127.05233764648438 917.0
128.05398559570312 1042.0
129.0691375732422 2749.0
130.06748962402344 6596.0
131.07611083984375 2449.0
132.0854034423828 5106.0
133.06617736816406 2361.0
134.09608459472656 2503.0
135.08103942871094 1008.0
136.10887145996094 972.0
138.09213256835938 1297.0
139.05355834960938 381.0
140.04986572265625 173.0
141.07305908203125 627.0
142.0665283203125 548.0
143.07691955566406 2420.0
144.08245849609375 36733.0
145.08645629882812 337.0
146.09902954101562 1660.0
147.08277893066406 634.0
150.0950927734375 5935.0
152.10641479492188 12217.0
153.07196044921875 365.0
154.06668090820312 3106.0
155.0716094970703 883.0
156.08331298828125 4168.0
157.08775329589844 1696.0
158.09542846679688 2537.0
160.07957458496094 224.0
164.1065673828125 1107.0
165.07154846191406 439.0
166.07009887695312 519.0
167.0771026611328 8945.0
168.08169555664062 18629.0
169.09112548828125 4255.0
170.09808349609375 2520.0
171.0951690673828 660.0
172.1136016845703 2119.0
174.09283447265625 332.0
178.07591247558594 452.0
179.07542419433594 793.0
180.08338928222656 15589.0
181.0904083251953 12552.0
182.0983428955078 8228.0
183.1014862060547 1531.0
184.0788116455078 5095.0
185.10646057128906 407.0
186.13124084472656 787.0
191.07054138183594 531.0
192.08055114746094 1848.0
193.08932495117188 3261.0
194.09683227539062 14045.0
195.10696411132812 13542.0
196.08236694335938 11438.0
197.0897674560547 27774.0
198.13134765625 5026.0
203.1303253173828 191.0
204.0894775390625 1117.0
205.08908081054688 1209.0
206.0951385498047 3949.0
207.10972595214844 4081.0
208.10858154296875 8859.0
209.1179656982422 3921.0
210.0972442626953 10831.0
211.10122680664062 5551.0
212.10964965820312 7534.0
217.0926971435547 420.0
218.09873962402344 617.0
219.1008758544922 609.0
220.080322265625 2262.0
221.12245178222656 2149.0
222.095947265625 19260.0
223.10302734375 38159.0
224.12498474121094 33667.0
225.11558532714844 19489.0
226.125244140625 27599.0
228.1365203857422 380.0
231.10719299316406 274.0
232.1088104248047 356.0
233.12545776367188 273.0
234.0949249267578 5013.0
235.1072998046875 7304.0
237.119140625 21115.0
238.127197265625 170735.0
239.13304138183594 559.0
240.14102172851562 1359.0
246.12547302246094 412.0
247.13482666015625 216.0
248.1130828857422 2531.0
249.11764526367188 14219.0
250.12644958496094 2076.0
251.13284301757812 2817.0
252.14125061035156 34072.0
253.17401123046875 25163.0
260.1499938964844 190.0
262.12518310546875 511.0
263.13720703125 1357.0
264.14202880859375 19714.0
265.1419372558594 482.0
266.1551818847656 74091.0
267.1932678222656 690.0
277.1712646484375 589.0
278.1580505371094 6307.0
293.1727600097656 154.0
294.27667236328125 1024.0
295.1849365234375 312576.0
296.2950439453125 153.0
296.4714050292969 170.0

Name: Synephrine
Precursor_mz: 168.0999991
Cas: 94-07-5
Adduct: [M+H]+
Mz: 168.1019051
Comment: Major
Smiles: CNCC(O)c1ccc(O)cc1
Formula: C9H13NO2
Mix: Alkaloids-pos-mix10
Rt: [0.352]
Rt_apex: 0.35237429
Rt_start: 0.321416667
Rt_end: 0.537216667
Ms1_intensity: 36891
N_scnas: 48
Ms1_scan_range: [102, 108, 151]
Reci_snr: 0.001793158
Ms2_scan_idx: 165
Pmz_offset: 0.000128856
Entropy: 0.9955775737762451
Num Peaks: 56
41.03915023803711 185.0
42.033992767333984 4260.0
43.017730712890625 124.0
44.04916763305664 325.0
45.03347396850586 51.0
50.017860412597656 75.0
51.02226638793945 1321.0
53.03853988647461 416.0
55.01683807373047 361.0
56.048980712890625 561.0
57.05891418457031 723.0
63.02347183227539 60.0
65.03904724121094 2843.0
66.04789733886719 146.0
67.04153442382812 101.0
75.02289581298828 41.0
77.03938293457031 10245.0
78.04898071289062 125.0
79.05391693115234 2205.0
80.05021667480469 641.0
81.06917572021484 460.0
82.06407165527344 31.0
83.05223846435547 31.0
89.0365982055664 1127.0
90.04712677001953 1039.0
91.05398559570312 17286.0
92.0475845336914 811.0
93.06959533691406 497.0
94.04145050048828 1201.0
95.0498046875 274.0
101.03932189941406 31.0
102.04615783691406 51.0
103.05370330810547 1227.0
104.06476593017578 150.0
105.06781768798828 215.0
106.06556701660156 1882.0
107.04915618896484 26793.0
108.05770874023438 1502.0
109.06365203857422 1362.0
115.05569458007812 99.0
117.05574798583984 1858.0
118.06299591064453 1735.0
119.04853820800781 1971.0
120.04431915283203 3139.0
121.06277465820312 1289.0
122.09638977050781 87.0
130.06375122070312 224.0
131.07557678222656 113.0
132.08163452148438 552.0
133.0526885986328 331.0
134.05979919433594 6723.0
135.06744384765625 13350.0
146.05941772460938 71.0
148.0760498046875 220.0
149.08526611328125 220.0
150.09103393554688 6162.0

Name: Vincamine
Precursor_mz: 355.2011473
Cas: 1617-90-9
Adduct: [M+H]+
Mz: 355.2016192
Comment: Major
Smiles: CC[C@]12CCCN3CCc4c(n(c5ccccc45)[C@@](O)(C(=O)OC)C1)[C@@H]32
Formula: C21H26N2O3
Mix: Alkaloids-pos-mix10
Rt: [2.649]
Rt_apex: 2.645364632
Rt_start: 2.596533333
Rt_end: 3.252816667
Ms1_intensity: 4304923
N_scnas: 111
Ms1_scan_range: [695, 702, 807]
Reci_snr: 2.82e-05
Ms2_scan_idx: 1187
Pmz_offset: 0.000593302
Entropy: 0.9858761429786682
Num Peaks: 223
41.038368225097656 556.0
42.035926818847656 1215.0
43.019691467285156 247.0
44.051151275634766 13779.0
45.03453826904297 412.0
55.055511474609375 2151.0
56.051239013671875 3099.0
58.068397521972656 900.0
67.05551147460938 3198.0
68.0508804321289 1265.0
69.06990814208984 216.0
70.067138671875 9389.0
77.03836822509766 1263.0
79.05538177490234 3162.0
80.05294799804688 1154.0
81.06940460205078 1152.0
82.068115234375 1147.0
83.04991149902344 5170.0
84.081298828125 1584.0
85.06338500976562 303.0
89.03816986083984 365.0
90.05004119873047 211.0
91.05423736572266 7095.0
92.0518798828125 256.0
93.06985473632812 4829.0
94.06756591796875 1602.0
95.08564758300781 7737.0
96.0844497680664 2041.0
97.08432006835938 243.0
98.0963134765625 2149.0
100.07707214355469 489.0
103.05683898925781 1292.0
104.05074310302734 408.0
105.068115234375 4334.0
106.06730651855469 1491.0
107.08866119384766 3943.0
108.08134460449219 3010.0
109.06395721435547 1015.0
110.09812927246094 12575.0
111.1046371459961 1522.0
112.11275482177734 3133.0
115.05450439453125 4064.0
116.05766296386719 373.0
117.07125091552734 7663.0
118.06484985351562 1602.0
119.07030487060547 751.0
120.08155822753906 1546.0
121.0631103515625 1870.0
122.06106567382812 2100.0
123.08180236816406 4633.0
124.1146011352539 10657.0
125.12032318115234 304.0
127.05692291259766 2257.0
128.0570068359375 1506.0
129.0689697265625 2016.0
130.06411743164062 7528.0
131.07432556152344 1397.0
132.08522033691406 2805.0
133.06924438476562 1486.0
134.09754943847656 11190.0
135.08248901367188 3228.0
136.0775909423828 1460.0
137.0977020263672 436.0
138.1298828125 1711.0
141.0712127685547 336.0
142.06802368164062 1037.0
143.07505798339844 9493.0
144.082275390625 231687.0
145.0676727294922 562.0
146.09713745117188 1711.0
147.0808868408203 386.0
148.0781707763672 630.0
149.10110473632812 325.0
150.09146118164062 1114.0
151.0764617919922 1987.0
152.1079559326172 43842.0
153.07522583007812 461.0
154.06822204589844 1508.0
155.0749053955078 1218.0
156.08135986328125 5387.0
157.09107971191406 1458.0
158.09698486328125 6093.0
159.09193420410156 364.0
160.10955810546875 788.0
161.0965576171875 190.0
162.0919647216797 5003.0
163.07789611816406 687.0
164.10995483398438 1222.0
165.074951171875 1124.0
166.0789337158203 636.0
167.07688903808594 4499.0
168.0832977294922 5229.0
169.0908966064453 1719.0
170.0923614501953 3049.0
171.09127807617188 1300.0
172.11521911621094 2173.0
173.1052703857422 189.0
174.0926055908203 1177.0
176.11109924316406 187.0
177.09576416015625 255.0
178.0794219970703 1515.0
179.0883331298828 1521.0
180.08316040039062 8847.0
181.09017944335938 6866.0
182.09622192382812 5390.0
183.1012420654297 1140.0
184.11474609375 1617.0
185.11004638671875 1246.0
186.09271240234375 864.0
188.07354736328125 217.0
190.06680297851562 782.0
191.07998657226562 3173.0
192.0841827392578 3112.0
193.0929718017578 5416.0
194.11416625976562 8861.0
195.10475158691406 2803.0
196.1155242919922 3238.0
197.11117553710938 1324.0
198.13108825683594 1694.0
202.08937072753906 1008.0
203.07406616210938 570.0
204.085205078125 10154.0
205.08880615234375 10141.0
206.09689331054688 17816.0
207.1054229736328 6686.0
208.11439514160156 18848.0
209.11566162109375 6384.0
210.1295166015625 4320.0
211.13357543945312 624.0
212.13389587402344 55330.0
214.0882568359375 543.0
215.08114624023438 278.0
216.10520935058594 809.0
217.09242248535156 3789.0
218.09844970703125 8640.0
219.1068115234375 16870.0
220.11334228515625 20711.0
221.12217712402344 10258.0
222.12913513183594 20246.0
223.132080078125 3113.0
224.13938903808594 10865.0
225.13844299316406 800.0
226.1228485107422 918.0
228.10231018066406 508.0
230.09466552734375 1290.0
231.1111602783203 1932.0
232.11277770996094 4361.0
233.12086486816406 3468.0
234.13327026367188 32596.0
235.13711547851562 6670.0
236.1431121826172 10009.0
237.13829040527344 3253.0
238.08790588378906 5289.0
239.09585571289062 9466.0
240.10809326171875 2240.0
242.11497497558594 593.0
243.1226348876953 180.0
244.11045837402344 513.0
245.1244659423828 832.0
246.1317596435547 4531.0
247.1278839111328 3013.0
248.14370727539062 15234.0
249.14389038085938 7513.0
250.16163635253906 7697.0
251.096923828125 6725.0
252.1074981689453 14323.0
253.11117553710938 8949.0
254.1190643310547 2367.0
258.11431884765625 660.0
259.13214111328125 217.0
260.149658203125 2016.0
261.1533203125 854.0
262.1339416503906 3386.0
263.1550598144531 614.0
264.1051940917969 40083.0
265.11187744140625 54723.0
266.12506103515625 37776.0
267.12872314453125 33390.0
268.1388244628906 53765.0
270.15789794921875 382.0
274.12811279296875 1218.0
275.1187744140625 1479.0
276.1275634765625 3255.0
277.1732482910156 13198.0
278.1225891113281 24614.0
279.1321716308594 42048.0
280.13653564453125 284580.0
281.13800048828125 1581.0
282.1577453613281 5479.0
287.16290283203125 353.0
288.13873291015625 421.0
290.1240234375 5698.0
291.1287841796875 6774.0
292.1376953125 22534.0
293.14837646484375 11301.0
294.1535339355469 272009.0
295.1845703125 41907.0
296.17388916015625 245.0
297.1334533691406 235.0
298.19146728515625 168.0
304.1457824707031 272.0
305.1672058105469 3806.0
306.1559143066406 7375.0
307.15118408203125 23796.0
308.165283203125 166521.0
309.1637878417969 4807.0
310.1861572265625 8557.0
312.1665344238281 319.0
320.1736145019531 5479.0
321.16119384765625 181.0
322.1704406738281 608.0
324.1684265136719 1045.0
325.1874694824219 861.0
326.1827392578125 2821.0
327.1694030761719 277.0
336.1600036621094 2052.0
337.20025634765625 607033.0
338.18792724609375 2250.0
354.123779296875 918.0
355.2073059082031 395843.0
356.1812744140625 320.0
356.3905334472656 368.0
356.6236877441406 272.0

Name: Isocorydine
Precursor_mz: 342.1707645
Cas: 475-67-2
Adduct: [M+H]+
Mz: 342.1699847
Comment: Major
Smiles: COc1ccc2c(c1O)-c1c(OC)c(OC)cc3c1[C@H](C2)N(C)CC3
Formula: C20H23NO4
Mix: Alkaloids-pos-mix10
Rt: [2.336]
Rt_apex: 2.33237288
Rt_start: 2.295216667
Rt_end: 2.457866667
Ms1_intensity: 4465337
N_scnas: 25
Ms1_scan_range: [649, 655, 675]
Reci_snr: 4.99e-05
Ms2_scan_idx: 964
Pmz_offset: 0.002565535
Entropy: 0.9985084533691406
Num Peaks: 121
42.0377197265625 154.0
44.05018997192383 10319.0
45.0335693359375 338.0
55.01799392700195 774.0
58.06622314453125 415.0
115.05744171142578 385.0
126.04965209960938 93.0
128.06484985351562 255.0
139.054931640625 650.0
140.06121826171875 93.0
141.06777954101562 385.0
150.04322814941406 311.0
151.0608367919922 957.0
152.06112670898438 2767.0
153.06991577148438 1697.0
154.0785675048828 407.0
157.06459045410156 93.0
163.05628967285156 624.0
164.05950927734375 1289.0
165.06942749023438 23031.0
166.07521057128906 4651.0
167.08584594726562 1047.0
168.0540771484375 306.0
169.0670623779297 344.0
176.06443786621094 2004.0
177.0713653564453 4825.0
178.07742309570312 27808.0
179.08822631835938 13674.0
180.09434509277344 5088.0
181.0655059814453 3505.0
182.0733642578125 1742.0
183.08782958984375 238.0
187.0586700439453 180.0
188.06573486328125 475.0
189.0735626220703 18021.0
190.08023071289062 25523.0
191.08761596679688 80614.0
192.09573364257812 3194.0
193.06748962402344 16514.0
194.076904296875 17847.0
195.0811004638672 2418.0
196.08787536621094 1052.0
197.09725952148438 625.0
200.0655059814453 352.0
201.0711212158203 5901.0
202.083251953125 6946.0
203.09193420410156 5791.0
204.0590057373047 1113.0
205.0665740966797 20348.0
206.07460021972656 27726.0
207.08306884765625 45236.0
208.09197998046875 24519.0
209.09523010253906 5523.0
210.06834411621094 3544.0
211.07431030273438 463.0
215.08717346191406 233.0
217.07366943359375 3045.0
218.0755157470703 17781.0
219.0838165283203 69237.0
220.0882110595703 10544.0
221.0635986328125 19756.0
222.07041931152344 14690.0
223.1151580810547 6114.0
224.08673095703125 5418.0
225.09619140625 3073.0
226.0657196044922 700.0
229.07176208496094 724.0
230.0689697265625 408.0
231.08326721191406 24014.0
232.0848388671875 714.0
233.0692901611328 6687.0
234.0708465576172 7925.0
235.07887268066406 84123.0
236.08473205566406 269817.0
237.09490966796875 53704.0
238.06610107421875 60624.0
239.10653686523438 1346.0
241.0874481201172 813.0
245.0649871826172 658.0
246.07215881347656 5208.0
247.07919311523438 150245.0
248.08828735351562 178380.0
249.09500122070312 8475.0
250.10154724121094 8294.0
251.110107421875 67340.0
252.08059692382812 4511.0
253.09091186523438 62903.0
254.09652709960938 425.0
255.1131134033203 242.0
260.1019592285156 154.0
261.0964660644531 4407.0
262.1042175292969 6056.0
263.07293701171875 29879.0
264.08221435546875 253643.0
265.0911560058594 236837.0
266.06536865234375 4415.0
267.1033020019531 14133.0
268.111083984375 2481.0
269.08392333984375 1156.0
271.099609375 383.0
277.0889587402344 3679.0
278.0966491699219 4366.0
279.106201171875 395781.0
280.11285400390625 94935.0
281.0837097167969 114829.0
282.1198425292969 273.0
283.1083068847656 351.0
284.1103515625 1249.0
286.1268310546875 791.0
293.11932373046875 407.0
294.1220703125 682.0
295.09515380859375 930.0
296.1109313964844 118326.0
298.1210021972656 666.0
299.13226318359375 1402.0
310.14642333984375 593.0
311.1332702636719 131899.0
313.15142822265625 631.0
325.15435791015625 401.0
341.1205139160156 154.0
342.1736145019531 41376.0

Name: Isocorydine
Precursor_mz: 364.1476297
Cas: 475-67-2
Adduct: [M+Na]+
Mz: 364.1519289
Comment: Major
Smiles: COc1ccc2c(c1O)-c1c(OC)c(OC)cc3c1[C@H](C2)N(C)CC3
Formula: C20H23NO4
Mix: Alkaloids-pos-mix10
Rt: [2.336]
Rt_apex: 2.346440635
Rt_start: 2.295216667
Rt_end: 2.405716667
Ms1_intensity: 21396
N_scnas: 17
Ms1_scan_range: [649, 657, 667]
Reci_snr: 0.009355081
Ms2_scan_idx: 956
Pmz_offset: 8.95e-05
Entropy: 1.0
Num Peaks: 5
306.0846862792969 31.0
348.1205139160156 31.0
349.1397705078125 62.0
363.01220703125 31.0
364.152099609375 580.0

Name: Sanguinarine
Precursor_mz: 332.0920051
Cas: 2447-54-3
Adduct: [M]+
Mz: 332.0917344
Comment: Major
Smiles: C[n+]1cc2c3c(ccc2c2ccc4cc5c(cc4c21)OCO5)OCO3
Formula: C20H14NO4+
Mix: Alkaloids-pos-mix11
Rt: [2.849]
Rt_apex: 2.851080826
Rt_start: 2.76525
Rt_end: 4.841116667
Ms1_intensity: 2357242
N_scnas: 351
Ms1_scan_range: [680, 694, 1032]
Reci_snr: 0.00208331
Ms2_scan_idx: 1325
Pmz_offset: 0.00238624
Entropy: 0.997268795967102
Num Peaks: 86
150.0504913330078 303.0
151.05783081054688 361.0
152.0650634765625 247.0
163.05538940429688 471.0
165.068603515625 879.0
174.0475616455078 510.0
175.0487518310547 762.0
176.06399536132812 1616.0
177.0709686279297 1140.0
178.0826873779297 709.0
179.0860137939453 289.0
187.05670166015625 648.0
188.06187438964844 1218.0
189.07167053222656 15257.0
190.0648193359375 3150.0
191.0819091796875 1654.0
192.080322265625 206.0
200.06793212890625 363.0
201.05767822265625 4149.0
202.06980895996094 2531.0
203.07449340820312 9881.0
204.0836639404297 5708.0
205.0732421875 2373.0
206.06922912597656 349.0
207.07974243164062 574.0
213.05955505371094 181.0
214.06651306152344 6533.0
215.07379150390625 16717.0
216.0813751220703 52875.0
217.0892333984375 21356.0
218.09530639648438 59527.0
219.0912322998047 1235.0
220.11441040039062 793.0
226.0671844482422 497.0
227.07266235351562 1854.0
228.07826232910156 4180.0
229.05422973632812 1730.0
230.0578155517578 1770.0
231.06787109375 6804.0
232.0758514404297 5281.0
233.08387756347656 11244.0
234.09410095214844 667.0
235.0806884765625 430.0
242.06015014648438 404.0
243.06553649902344 997.0
244.07740783691406 62694.0
245.0847930908203 6372.0
246.092041015625 138931.0
247.09915161132812 15430.0
248.10610961914062 11350.0
256.08050537109375 1156.0
257.08758544921875 1324.0
258.0921325683594 1664.0
259.0670166015625 17132.0
260.0731506347656 9258.0
261.0789489746094 16558.0
262.0867004394531 934.0
270.05950927734375 285.0
271.05902099609375 193.0
272.07427978515625 8494.0
273.08447265625 4406.0
274.08721923828125 294225.0
275.0941467285156 22398.0
276.1052551269531 28341.0
284.0669250488281 508.0
286.0572204589844 1519.0
287.0597229003906 9153.0
288.0663757324219 10682.0
289.07476806640625 23514.0
290.0825500488281 1445.0
300.064697265625 534.0
301.07196044921875 489.0
302.0833435058594 81564.0
303.093994140625 9189.0
304.0989685058594 213968.0
314.08111572265625 1448.0
315.05181884765625 1171.0
316.0614318847656 13699.0
317.0701904296875 217697.0
330.07769775390625 46772.0
331.07281494140625 3019.0
332.094970703125 938784.0
333.0393371582031 989.0
333.236572265625 577.0
333.4671630859375 448.0
333.5722351074219 189.0

Name: Sanguinarine
Precursor_mz: 332.0908593
Cas: 2447-54-3
Adduct: [M]+
Mz: 332.0917344
Comment: isomer
Smiles: C[n+]1cc2c3c(ccc2c2ccc4cc5c(cc4c21)OCO5)OCO3
Formula: C20H14NO4+
Mix: Alkaloids-pos-mix11
Rt: [2.849]
Rt_apex: 9.511187744
Rt_start: 9.451283333
Rt_end: 9.715416667
Ms1_intensity: 3320
N_scnas: 37
Ms1_scan_range: [2196, 2205, 2234]
Reci_snr: 0.073871138
Ms2_scan_idx: 3934
Pmz_offset: 0.001240405
Entropy: 0.8127346634864807
Num Peaks: 15
105.03658294677734 41.0
149.0618438720703 59.0
189.06573486328125 41.0
215.07362365722656 77.0
216.0791473388672 127.0
217.08700561523438 64.0
218.0951385498047 118.0
244.0772247314453 161.0
246.09625244140625 159.0
248.10592651367188 41.0
274.0846862792969 423.0
275.0962829589844 126.0
289.0721740722656 60.0
316.0636901855469 75.0
332.0998229980469 786.0

Name: Cephalomannine
Precursor_mz: 832.3574654
Cas: 71610-00-9
Adduct: [M+H]+
Mz: 832.3538818
Comment: Major
Smiles: C/C=C(\C)C(=O)N[C@@H](c1ccccc1)[C@@H](O)C(=O)O[C@H]1C[C@@]2(O)[C@@H](OC(=O)c3ccccc3)[C@H]3[C@](C)(C(=O)[C@H](OC(C)=O)C(=C1C)C2(C)C)[C@@H](O)C[C@H]1OC[C@]13OC(C)=O
Formula: C45H53NO14
Mix: Alkaloids-pos-mix11
Rt: [4.613]
Rt_apex: 4.620340963
Rt_start: 4.561083333
Rt_end: 4.874466667
Ms1_intensity: 2645614
N_scnas: 53
Ms1_scan_range: [987, 996, 1041]
Reci_snr: 0.000172178
Ms2_scan_idx: 2209
Pmz_offset: 0.00248062
Entropy: 0.9904742240905762
Num Peaks: 214
43.016273498535156 885.0
51.02300262451172 250.0
55.055240631103516 4755.0
57.06841278076172 304.0
69.0328369140625 554.0
77.0401611328125 2452.0
79.05228424072266 642.0
81.0322265625 418.0
83.04944610595703 50735.0
91.05538940429688 3085.0
93.07109832763672 1955.0
95.05003356933594 1157.0
97.06637573242188 308.0
99.04661560058594 256.0
100.07581329345703 25408.0
103.05567932128906 309.0
105.033935546875 47982.0
106.0647964477539 1403.0
107.08617401123047 1935.0
109.0673828125 1491.0
111.04161834716797 525.0
115.05674743652344 439.0
117.06751251220703 417.0
118.06571197509766 3113.0
119.08345031738281 3001.0
121.06409454345703 3931.0
123.08130645751953 2184.0
125.06182861328125 675.0
128.0598602294922 312.0
129.0750732421875 559.0
131.08697509765625 1805.0
133.06748962402344 5282.0
135.08079528808594 2884.0
136.0742950439453 3175.0
137.0615692138672 762.0
139.07496643066406 916.0
141.05303955078125 490.0
142.07826232910156 287.0
143.08535766601562 2156.0
145.0967254638672 1448.0
147.07957458496094 2086.0
149.09300231933594 3536.0
151.07528686523438 2829.0
153.06370544433594 153.0
155.08609008789062 1040.0
156.09262084960938 188.0
157.09889221191406 1790.0
159.08041381835938 3801.0
160.08914184570312 222.0
161.0939483642578 5234.0
163.07533264160156 1136.0
164.07325744628906 522.0
165.05801391601562 837.0
167.0726318359375 2041.0
168.091796875 170.0
169.09945678710938 2133.0
170.10830688476562 314.0
171.07794189453125 1222.0
172.08714294433594 221.0
173.0974578857422 2051.0
175.07498168945312 2333.0
177.0880126953125 3121.0
178.0829315185547 206.0
179.0749969482422 1210.0
180.09617614746094 433.0
181.0994873046875 1647.0
182.0809783935547 926.0
183.1163787841797 2074.0
185.09478759765625 1779.0
186.1023406982422 186.0
187.07615661621094 1310.0
188.1063995361328 1302.0
189.08929443359375 1564.0
191.0782928466797 604.0
192.09225463867188 421.0
193.10304260253906 2329.0
194.11257934570312 752.0
195.1168975830078 3712.0
196.1257781982422 453.0
197.0978546142578 2516.0
198.1059112548828 260.0
199.11257934570312 2053.0
200.10592651367188 305.0
201.09378051757812 917.0
203.10276794433594 1110.0
205.10165405273438 710.0
206.1077880859375 2356.0
207.1163787841797 2433.0
208.12945556640625 585.0
209.13284301757812 3763.0
210.1101531982422 1195.0
211.11419677734375 2899.0
212.11656188964844 294.0
213.09262084960938 1659.0
215.1070098876953 1301.0
217.1184844970703 537.0
218.11839294433594 57103.0
219.12062072753906 1029.0
220.1251220703125 1421.0
221.1361083984375 5783.0
222.09921264648438 918.0
223.11471557617188 3262.0
224.1199188232422 1359.0
225.1273956298828 4245.0
226.09913635253906 276.0
227.14065551757812 1554.0
228.1061248779297 180.0
229.12039184570312 1279.0
230.10922241210938 625.0
231.1044464111328 731.0
232.12747192382812 548.0
233.13133239746094 1565.0
234.10301208496094 877.0
235.14772033691406 5926.0
236.1171112060547 442.0
237.12738037109375 6508.0
238.135498046875 1046.0
239.1414031982422 8322.0
240.11898803710938 212.0
241.12034606933594 2200.0
243.13807678222656 646.0
245.1356658935547 2775.0
246.11219787597656 26300.0
247.0994873046875 9502.0
248.11972045898438 2307.0
249.12652587890625 5262.0
250.13539123535156 254.0
251.141845703125 3093.0
252.11465454101562 735.0
253.1563262939453 6063.0
254.12855529785156 258.0
255.14076232910156 3340.0
257.1531982421875 1338.0
258.10601806640625 264.0
259.1260986328125 222.0
261.12921142578125 1189.0
263.14459228515625 17423.0
263.3153381347656 253.0
264.12664794921875 216688.0
265.1265563964844 2252.0
266.1329345703125 1239.0
267.1366271972656 7168.0
269.1197814941406 1908.0
271.1749267578125 1103.0
273.12890625 2139.0
276.1173095703125 755.0
279.13604736328125 3977.0
281.15606689453125 20841.0
283.12908935546875 1463.0
284.1477355957031 618.0
285.1492614746094 3584.0
287.12908935546875 1684.0
291.140380859375 13039.0
293.1216125488281 193.0
294.12921142578125 505.0
295.1385192871094 200.0
297.1477966308594 2967.0
299.1639099121094 7940.0
306.1340026855469 544.0
309.1492614746094 39170.0
311.1338195800781 460.0
315.1643371582031 1283.0
317.173095703125 867.0
323.1719970703125 417.0
325.1402587890625 332.0
327.1601867675781 46058.0
329.13800048828125 1182.0
333.1499328613281 312.0
339.1629638671875 258.0
341.17926025390625 682.0
344.16937255859375 407.0
345.1698303222656 6361.0
350.14141845703125 497.0
351.1636657714844 1532.0
357.1666564941406 454.0
359.1824951171875 702.0
363.1803894042969 223.0
368.15570068359375 1468.0
369.17425537109375 6871.0
385.18280029296875 283.0
387.18499755859375 12224.0
401.1937561035156 339.0
403.1778869628906 408.0
405.197998046875 1139.0
413.1748352050781 525.0
421.2006530761719 270.0
429.19024658203125 865.0
431.1899108886719 2529.0
447.2090759277344 1794.0
449.19964599609375 4467.0
465.2048034667969 278.0
467.20770263671875 435.0
473.1964416503906 1050.0
491.2079162597656 4584.0
509.2200927734375 109421.0
523.2236938476562 268.0
527.2310791015625 227.0
533.2254638671875 741.0
542.2658081054688 377.0
551.227294921875 9687.0
554.2528076171875 206.0
569.243408203125 24118.0
572.2608032226562 436.0
590.2907104492188 215.0
632.2711181640625 217.0
650.295654296875 395.0
655.25439453125 3916.0
692.3048706054688 303.0
694.3002319335938 494.0
712.3203735351562 250.0
736.3255615234375 281.0
754.324462890625 5119.0
772.3574829101562 733.0
832.3557739257812 2552.0

Name: Cephalomannine
Precursor_mz: 854.3378031
Cas: 71610-00-9
Adduct: [M+Na]+
Mz: 854.3358261
Comment: Major
Smiles: C/C=C(\C)C(=O)N[C@@H](c1ccccc1)[C@@H](O)C(=O)O[C@H]1C[C@@]2(O)[C@@H](OC(=O)c3ccccc3)[C@H]3[C@](C)(C(=O)[C@H](OC(C)=O)C(=C1C)C2(C)C)[C@@H](O)C[C@H]1OC[C@]13OC(C)=O
Formula: C45H53NO14
Mix: Alkaloids-pos-mix11
Rt: [4.613]
Rt_apex: 4.622459275
Rt_start: 4.561083333
Rt_end: 4.668916667
Ms1_intensity: 236140
N_scnas: 15
Ms1_scan_range: [987, 996, 1003]
Reci_snr: 0.000931751
Ms2_scan_idx: 2203
Pmz_offset: 0.000874603
Entropy: 0.9999999403953552
Num Peaks: 33
105.0324935913086 1132.0
107.08472442626953 186.0
122.05899047851562 507.0
221.13194274902344 228.0
223.11471557617188 221.0
239.14573669433594 310.0
240.10157775878906 294.0
263.1400146484375 246.0
267.1412353515625 169.0
268.0939636230469 598.0
281.1537170410156 417.0
286.1074523925781 52502.0
299.16876220703125 177.0
309.14678955078125 403.0
327.152587890625 351.0
349.1495056152344 262.0
365.1782531738281 182.0
409.16534423828125 968.0
425.20196533203125 326.0
427.1778259277344 210.0
469.1814880371094 1434.0
471.18377685546875 429.0
487.21002197265625 445.0
503.19573974609375 192.0
509.2232666015625 524.0
513.1926879882812 229.0
531.2019653320312 10170.0
547.2247924804688 749.0
591.2218627929688 11971.0
609.2339477539062 206.0
672.2833862304688 819.0
794.3130493164062 243.0
854.3463745117188 50502.0

Name: Cephalomannine
Precursor_mz: 849.3797165
Cas: 71610-00-9
Adduct: [M+NH4]+
Mz: 849.3804309
Comment: Major
Smiles: C/C=C(\C)C(=O)N[C@@H](c1ccccc1)[C@@H](O)C(=O)O[C@H]1C[C@@]2(O)[C@@H](OC(=O)c3ccccc3)[C@H]3[C@](C)(C(=O)[C@H](OC(C)=O)C(=C1C)C2(C)C)[C@@H](O)C[C@H]1OC[C@]13OC(C)=O
Formula: C45H53NO14
Mix: Alkaloids-pos-mix11
Rt: [4.613]
Rt_apex: 4.614824932
Rt_start: 4.575083333
Rt_end: 4.65525
Ms1_intensity: 6748
N_scnas: 11
Ms1_scan_range: [989, 995, 1001]
Reci_snr: 0.012312164
Ms2_scan_idx: 2202
Pmz_offset: 0.000768449
Entropy: 1.0
Num Peaks: 58
83.04817199707031 1614.0
100.07581329345703 1233.0
105.0324935913086 1365.0
118.06571197509766 360.0
133.06263732910156 461.0
147.08297729492188 197.0
149.096435546875 473.0
159.08041381835938 426.0
161.09571838378906 412.0
175.07127380371094 183.0
177.05067443847656 219.0
195.1149444580078 503.0
207.11839294433594 199.0
209.1308135986328 281.0
211.15090942382812 239.0
218.1163330078125 2392.0
221.1361083984375 569.0
223.1105194091797 431.0
225.1252899169922 429.0
235.14772033691406 434.0
237.12306213378906 441.0
239.1392364501953 556.0
246.11439514160156 1422.0
247.0994873046875 772.0
248.12413024902344 215.0
249.12210083007812 404.0
251.14405822753906 228.0
253.1585693359375 439.0
255.134033203125 232.0
263.1468505859375 941.0
264.1243896484375 10790.0
265.12884521484375 200.0
267.1389465332031 403.0
269.11517333984375 197.0
279.13836669921875 332.0
281.1607666015625 1205.0
283.1314392089844 206.0
285.1516418457031 202.0
291.1379699707031 899.0
297.1550598144531 208.0
299.1566162109375 437.0
309.1492614746094 2200.0
327.1551208496094 2111.0
345.1619873046875 432.0
351.15576171875 186.0
369.1715393066406 495.0
387.1739501953125 834.0
431.19573974609375 226.0
449.19964599609375 343.0
491.2079162597656 392.0
509.2200927734375 4667.0
551.2305908203125 1090.0
569.2500610351562 2123.0
572.2742309570312 180.0
655.25439453125 381.0
754.3167724609375 574.0
772.3379516601562 215.0
832.3760375976562 550.0

Name: Galanthamine hydrobromide
Precursor_mz: 288.1589622
Cas: 4/4/53
Adduct: [M+H]+
Mz: 288.15942
Comment: Major
Smiles: COc1ccc2c3c1O[C@H]1C[C@@H](O)C=C[C@@]31CCN(C)C2
Formula: C17H21NO3
Mix: Alkaloids-pos-mix11
Rt: [1.456]
Rt_apex: 1.451612531
Rt_start: 1.409866667
Rt_end: 1.681416667
Ms1_intensity: 2651207
N_scnas: 46
Ms1_scan_range: [449, 455, 496]
Reci_snr: 0.000287981
Ms2_scan_idx: 574
Pmz_offset: 0.000927705
Entropy: 0.9899786114692688
Num Peaks: 153
41.03948974609375 249.0
42.03437042236328 895.0
43.017234802246094 2436.0
44.05056381225586 11397.0
51.025054931640625 178.0
53.03942108154297 356.0
55.01885223388672 20335.0
56.048954010009766 1000.0
58.0661506652832 13964.0
67.05689239501953 221.0
69.03406524658203 272.0
72.08109283447266 378.0
77.03900146484375 2561.0
79.05360412597656 1110.0
80.04994201660156 516.0
81.03230285644531 804.0
82.06514739990234 92.0
91.05413818359375 7060.0
93.06983184814453 2714.0
94.06485748291016 1134.0
95.05012512207031 203.0
102.0439224243164 258.0
103.0543441772461 1504.0
104.06401824951172 233.0
105.06855010986328 7173.0
106.06633758544922 323.0
107.05142211914062 932.0
108.05856323242188 489.0
109.06748962402344 2315.0
115.05384063720703 6345.0
116.06156921386719 854.0
117.06761932373047 1472.0
119.08509063720703 403.0
120.08106994628906 404.0
121.06420135498047 1551.0
122.0746078491211 537.0
123.08297729492188 951.0
124.07830047607422 236.0
126.04631042480469 551.0
127.05352020263672 6079.0
128.0631561279297 6642.0
129.0672149658203 2989.0
130.0800018310547 383.0
131.05174255371094 2208.0
132.08033752441406 2653.0
133.0870361328125 2329.0
134.09756469726562 1456.0
135.08091735839844 7836.0
136.05149841308594 312.0
137.05841064453125 1645.0
138.06573486328125 512.0
139.05523681640625 622.0
141.07150268554688 9997.0
142.07838439941406 4997.0
143.0838165283203 3065.0
144.05572509765625 1792.0
145.0647430419922 5144.0
146.06878662109375 2539.0
147.04396057128906 1222.0
148.05311584472656 949.0
149.05886840820312 432.0
150.09381103515625 498.0
151.09783935546875 1783.0
152.0636749267578 10484.0
153.07078552246094 9172.0
154.0794677734375 1920.0
155.04953002929688 19497.0
156.0594482421875 374.0
157.06561279296875 1842.0
158.0732421875 1470.0
159.08055114746094 3458.0
160.08750915527344 2380.0
161.09765625 5023.0
162.06808471679688 1855.0
163.0754852294922 1142.0
164.0608367919922 395.0
165.07078552246094 14719.0
166.07659912109375 10316.0
167.08547973632812 3495.0
168.0592041015625 3705.0
169.06494140625 25566.0
170.07186889648438 17067.0
171.07992553710938 4503.0
172.08729553222656 933.0
173.06069946289062 1037.0
174.06275939941406 1012.0
175.07699584960938 6877.0
176.06997680664062 153.0
177.0713653564453 381.0
178.079345703125 3903.0
179.08642578125 9463.0
180.0530242919922 909.0
181.06565856933594 36284.0
182.0735626220703 55480.0
183.04627990722656 76391.0
184.05206298828125 1476.0
185.09686279296875 21643.0
186.06996154785156 471.0
187.07632446289062 1677.0
188.08348083496094 2756.0
189.08946228027344 4843.0
190.0807342529297 2299.0
191.0862274169922 4436.0
193.1012725830078 379.0
194.0717010498047 5476.0
195.08180236816406 4192.0
196.09059143066406 717.0
197.06060791015625 16616.0
198.06857299804688 358317.0
199.07711791992188 5426.0
200.0862579345703 457.0
201.08998107910156 906.0
203.11094665527344 12882.0
204.1001739501953 92.0
205.07168579101562 231.0
206.07977294921875 667.0
207.08021545410156 4601.0
208.0932159423828 704.0
209.09852600097656 15057.0
210.07168579101562 5328.0
211.07565307617188 1629.0
212.08815002441406 1831.0
213.09280395507812 465437.0
214.06289672851562 1933.0
215.10104370117188 542.0
216.07980346679688 1573.0
217.08560180664062 197.0
218.1144561767578 92.0
221.08206176757812 794.0
222.09523010253906 678.0
224.08230590820312 1428.0
225.091796875 23033.0
226.09934997558594 1118.0
227.1112518310547 1571.0
228.0999755859375 193.0
229.08872985839844 2574.0
230.11581420898438 302.0
231.10252380371094 64563.0
237.11680603027344 299.0
238.12704467773438 1124.0
239.10255432128906 1189.0
240.1083221435547 674.0
241.12274169921875 893.0
242.09344482421875 1583.0
245.11610412597656 384.0
253.12083435058594 331.0
254.11761474609375 3374.0
255.12530517578125 5375.0
257.1196594238281 676.0
268.1309814453125 380.0
270.1523742675781 18709.0
287.2696533203125 186.0
288.1623229980469 28778.0

Name: Racanisodamine
Precursor_mz: 306.171257
Cas: 17659-49-3
Adduct: [M+H]+
Mz: 306.1699847
Comment: Major
Smiles: CN1C2CC(OC(=O)C(CO)c3ccccc3)CC1C(O)C2
Formula: C17H23NO4
Mix: Alkaloids-pos-mix11
Rt: [1.77, 1.886]
Rt_apex: 1.77239712
Rt_start: 1.72035
Rt_end: 1.840783333
Ms1_intensity: 2054640
N_scnas: 19
Ms1_scan_range: [506, 516, 526]
Reci_snr: 7.78e-05
Ms2_scan_idx: 738
Pmz_offset: 0.002468169
Entropy: 0.9942659139633179
Num Peaks: 69
41.037620544433594 701.0
42.03520965576172 4673.0
43.01808166503906 4125.0
44.051422119140625 5756.0
51.02296447753906 334.0
53.03831100463867 553.0
55.05415725708008 1764.0
56.04991149902344 2448.0
57.057769775390625 204.0
58.06498336791992 12475.0
60.04384994506836 299.0
65.03813934326172 553.0
67.05448150634766 974.0
68.04988098144531 713.0
70.06620025634766 1584.0
72.04285430908203 790.0
73.05288696289062 3240.0
74.05908203125 106.0
77.03764343261719 4464.0
78.0361099243164 141.0
79.05472564697266 18404.0
80.04855346679688 1468.0
81.070068359375 11422.0
82.06501007080078 18597.0
83.04938507080078 5998.0
84.08467102050781 305.0
86.06246948242188 263.0
88.07643127441406 77.0
91.0553207397461 53060.0
92.0503158569336 124.0
93.0696792602539 3292.0
94.064697265625 10335.0
95.08690643310547 381.0
96.08162689208984 4521.0
97.08843231201172 10365.0
98.0601806640625 1006.0
99.06748962402344 272.0
101.05946350097656 109.0
102.04375457763672 190.0
103.0541763305664 32767.0
105.07269287109375 460.0
106.066162109375 1088.0
107.07302856445312 4772.0
108.08172607421875 92.0
109.06437683105469 8322.0
110.09858703613281 236.0
111.07850646972656 99.0
112.07762908935547 412.0
114.08928680419922 381.0
120.08086395263672 1260.0
121.06554412841797 13540.0
122.09766387939453 54149.0
124.11405181884766 182.0
126.09336853027344 77.0
131.0595703125 94.0
138.09519958496094 126.0
140.1078338623047 389518.0
140.99794006347656 106.0
141.11627197265625 1092.0
156.10302734375 2632.0
158.11709594726562 9454.0
230.1558837890625 723.0
258.1463928222656 108.0
275.15484619140625 176.0
276.1614074707031 2274.0
288.1665954589844 1117.0
305.2234802246094 503.0
306.17303466796875 202008.0
308.22686767578125 77.0

Name: Racanisodamine
Precursor_mz: 306.1709581
Cas: 17659-49-3
Adduct: [M+H]+
Mz: 306.1699847
Comment: isomer
Smiles: CN1C2CC(OC(=O)C(CO)c3ccccc3)CC1C(O)C2
Formula: C17H23NO4
Mix: Alkaloids-pos-mix11
Rt: [1.77, 1.886]
Rt_apex: 1.883806734
Rt_start: 1.840783333
Rt_end: 2.15425
Ms1_intensity: 1810704
N_scnas: 54
Ms1_scan_range: [526, 532, 581]
Reci_snr: 0.000115037
Ms2_scan_idx: 792
Pmz_offset: 0.002169286
Entropy: 0.9984033703804016
Num Peaks: 62
41.040279388427734 902.0
42.03425979614258 6531.0
43.018959045410156 7656.0
44.05044937133789 11702.0
51.02492141723633 363.0
53.03927993774414 618.0
55.055145263671875 3044.0
56.05195999145508 3343.0
57.0566520690918 309.0
58.06599807739258 19799.0
65.03807830810547 747.0
67.05211639404297 1026.0
68.05097198486328 1663.0
70.06495666503906 2973.0
72.045166015625 1196.0
73.05281829833984 5183.0
74.06021881103516 123.0
77.04003143310547 6041.0
79.05464935302734 27351.0
80.05098724365234 1388.0
81.06999206542969 18716.0
82.06620025634766 20955.0
83.05186462402344 7038.0
84.07943725585938 373.0
86.05978393554688 333.0
88.07502746582031 123.0
91.05523681640625 72464.0
92.05561828613281 92.0
93.06822967529297 2961.0
94.06597137451172 13575.0
95.08818054199219 183.0
96.08152770996094 6002.0
97.08971405029297 11832.0
98.06424713134766 987.0
99.06879425048828 215.0
101.06218719482422 280.0
103.0540771484375 45329.0
105.06827545166016 667.0
106.0675048828125 1535.0
107.07437133789062 4850.0
108.08453369140625 173.0
109.06719970703125 9814.0
112.0775146484375 504.0
114.09516906738281 479.0
120.08074951171875 1100.0
121.06697082519531 13201.0
122.09754180908203 63244.0
124.11080169677734 254.0
126.08694458007812 93.0
138.09341430664062 123.0
140.10935974121094 316883.0
141.11947631835938 981.0
156.10287475585938 2748.0
158.1186981201172 12557.0
181.1067352294922 93.0
230.15565490722656 562.0
275.1522521972656 92.0
276.1611328125 2873.0
288.16156005859375 2378.0
305.2330017089844 800.0
306.1752014160156 118644.0
307.49774169921875 92.0

Name: Racanisodamine
Precursor_mz: 328.1515013
Cas: 17659-49-3
Adduct: [M+Na]+
Mz: 328.1519289
Comment: Major
Smiles: CN1C2CC(OC(=O)C(CO)c3ccccc3)CC1C(O)C2
Formula: C17H23NO4
Mix: Alkaloids-pos-mix11
Rt: [1.77, 1.886]
Rt_apex: 1.774609239
Rt_start: 1.739183333
Rt_end: 1.82045
Ms1_intensity: 3170
N_scnas: 12
Ms1_scan_range: [510, 516, 523]
Reci_snr: 0.115918916
Ms2_scan_idx: 731
Pmz_offset: 0.001122064
Entropy: 0.9999998807907104
Num Peaks: 3
96.08024597167969 93.0
122.09766387939453 123.0
140.10284423828125 639.0

Name: Danofloxacin mesylate
Precursor_mz: 358.1566274
Cas: 119478-55-6
Adduct: [M+H]+
Mz: 358.1561461
Comment: Major
Smiles: CN1C[C@@H]2C[C@H]1CN2c1cc2c(cc1F)c(=O)c(C(=O)O)cn2C1CC1
Formula: C19H20FN3O3
Mix: Alkaloids-pos-mix11
Rt: [2.14]
Rt_apex: 2.140306521
Rt_start: 2.000933333
Rt_end: 2.410233333
Ms1_intensity: 1418539
N_scnas: 68
Ms1_scan_range: [553, 579, 622]
Reci_snr: 0.000942964
Ms2_scan_idx: 912
Pmz_offset: 0.002125346
Entropy: 0.9211034774780273
Num Peaks: 113
41.038551330566406 499.0
42.034332275390625 1935.0
44.04866027832031 313.0
55.053157806396484 199.0
57.0567512512207 306.0
67.04074096679688 1248.0
68.04876708984375 691.0
70.06625366210938 3036.0
75.04789733886719 308.0
77.03893280029297 183.0
79.05353546142578 604.0
80.04735565185547 1089.0
81.0574951171875 1028.0
82.06507110595703 52080.0
83.07247161865234 7095.0
84.08087158203125 1013.0
94.06476593017578 2929.0
96.080322265625 8006.0
97.07605743408203 849.0
133.03834533691406 226.0
146.04660034179688 262.0
147.0540313720703 197.0
148.05126953125 235.0
154.06365966796875 391.0
160.0571746826172 641.0
162.060791015625 236.0
163.04127502441406 192.0
168.06814575195312 243.0
172.0521697998047 592.0
173.05868530273438 345.0
174.07000732421875 634.0
175.0675506591797 400.0
178.05296325683594 441.0
181.07872009277344 190.0
185.06614685058594 195.0
186.0717010498047 234.0
187.06655883789062 837.0
188.07174682617188 346.0
189.07965087890625 284.0
190.05152893066406 229.0
191.06277465820312 237.0
193.0854949951172 307.0
196.0589599609375 249.0
197.04859924316406 637.0
198.06640625 323.0
199.0650634765625 496.0
200.08010864257812 383.0
201.05397033691406 465.0
202.06809997558594 1632.0
203.06277465820312 1389.0
204.06790161132812 246.0
207.09011840820312 452.0
209.07196044921875 311.0
211.0652618408203 296.0
212.0838623046875 690.0
213.09056091308594 465.0
214.09144592285156 529.0
215.05967712402344 2672.0
216.0692901611328 986.0
217.07298278808594 759.0
218.0479278564453 3509.0
219.09361267089844 1155.0
221.06724548339844 204.0
222.0782928466797 454.0
223.08535766601562 192.0
225.1000213623047 428.0
226.0906982421875 190.0
227.06874084472656 454.0
228.07009887695312 357.0
229.07789611816406 2097.0
230.0836639404297 326.0
231.09164428710938 1953.0
237.10577392578125 1390.0
238.0986785888672 471.0
239.10015869140625 646.0
240.103759765625 1008.0
241.07676696777344 548.0
242.09103393554688 819.0
243.05931091308594 430.0
245.11148071289062 2288.0
251.1084747314453 269.0
252.11465454101562 365.0
253.12060546875 567.0
254.05026245117188 1318.0
255.05783081054688 31647.0
256.06512451171875 2184.0
257.1104431152344 3010.0
259.0854187011719 793.0
263.11724853515625 186.0
264.0810546875 312.0
267.0884704589844 183.0
268.11004638671875 517.0
269.1013488769531 162.0
271.12872314453125 2272.0
278.0889587402344 287.0
279.1008605957031 677.0
281.1066589355469 432.0
283.126708984375 7429.0
284.0815124511719 378.0
285.14215087890625 573.0
292.1469421386719 461.0
294.1604919433594 1258.0
297.1091003417969 250.0
298.1331787109375 518.0
299.10565185546875 304.0
312.15948486328125 466.0
314.1661071777344 4787.0
320.13916015625 1318.0
339.0983581542969 781.0
340.14837646484375 350961.0
341.1507568359375 1362.0
358.1565856933594 33333.0
359.169189453125 166.0

Name: Harmine
Precursor_mz: 213.1030502
Cas: 442-51-3
Adduct: [M+H]+
Mz: 213.1022395
Comment: Major
Smiles: COc1ccc2c(c1)[nH]c1c(C)nccc12
Formula: C13H12N2O
Mix: Alkaloids-pos-mix11
Rt: [2.395]
Rt_apex: 2.395681362
Rt_start: 2.291233333
Rt_end: 2.930866667
Ms1_intensity: 4760960
N_scnas: 103
Ms1_scan_range: [602, 619, 706]
Reci_snr: 0.000246165
Ms2_scan_idx: 1073
Pmz_offset: 0.00227695
Entropy: 0.9821993112564087
Num Peaks: 57
51.02297592163086 231.0
66.0458984375 438.0
75.02354431152344 268.0
77.03889465332031 1121.0
78.03240966796875 230.0
89.03919219970703 3075.0
90.0457763671875 839.0
91.05668640136719 692.0
92.05033874511719 1000.0
93.05886840820312 10245.0
100.0182113647461 233.0
101.03691864013672 2720.0
102.0466079711914 3961.0
103.05419921875 1699.0
104.049560546875 318.0
113.03946685791016 450.0
114.04734802246094 532.0
115.05518341064453 27077.0
116.04931640625 4021.0
117.058349609375 4952.0
118.0656509399414 7830.0
119.07420349121094 200.0
125.03508758544922 290.0
126.03352355957031 905.0
127.04859161376953 326.0
128.05026245117188 11687.0
129.0558624267578 2806.0
130.06381225585938 1344.0
140.04806518554688 2843.0
141.05630493164062 2488.0
142.06480407714844 15072.0
143.06683349609375 8329.0
144.0791015625 82986.0
145.0645294189453 842.0
152.04962158203125 853.0
153.04278564453125 4280.0
154.0618438720703 959.0
155.06155395507812 51028.0
157.049560546875 263.0
167.05984497070312 1209.0
168.06988525390625 13257.0
169.07748413085938 715910.0
170.0844268798828 994673.0
171.0668487548828 813.0
172.0760040283203 154.0
179.06175231933594 233.0
181.07484436035156 678.0
182.0789794921875 314.0
183.0915985107422 1020.0
185.10806274414062 1309.0
197.07017517089844 993.0
198.08013916015625 744621.0
212.4517822265625 1300.0
213.10275268554688 585868.0
213.86141967773438 352.0
214.04615783691406 269.0
214.20223999023438 289.0

Name: Harmane
Precursor_mz: 183.0910138
Cas: 486-84-0
Adduct: [M+H]+
Mz: 183.0916748
Comment: Major
Smiles: Cc1nccc2c1[nH]c1ccccc12
Formula: C12H10N2
Mix: Alkaloids-pos-mix11
Rt: [2.155]
Rt_apex: 2.152718183
Rt_start: 2.111266667
Rt_end: 2.410233333
Ms1_intensity: 4780245
N_scnas: 47
Ms1_scan_range: [574, 581, 622]
Reci_snr: 0.001023579
Ms2_scan_idx: 948
Pmz_offset: 0.001844637
Entropy: 0.991303026676178
Num Peaks: 52
42.034332275390625 229.0
51.02500915527344 263.0
63.02366256713867 3024.0
65.03932189941406 6367.0
74.01566314697266 183.0
75.02236938476562 759.0
77.0376968383789 1004.0
78.0324478149414 187.0
85.0047607421875 215.0
86.01567077636719 655.0
87.02601623535156 811.0
88.03172302246094 986.0
89.03923797607422 62850.0
90.04582214355469 1133.0
91.0527114868164 1323.0
101.039794921875 673.0
102.04524230957031 1177.0
103.05567932128906 412.0
113.03803253173828 5313.0
114.04590606689453 15440.0
115.05524444580078 939717.0
116.0508804321289 10861.0
117.056884765625 3624.0
126.04619598388672 409.0
127.05498504638672 6797.0
129.07028198242188 10622.0
130.0654754638672 1344.0
139.05345153808594 1906.0
140.0514678955078 40660.0
141.05970764160156 29977.0
142.06488037109375 51310.0
143.07528686523438 746.0
152.04795837402344 315.0
153.05674743652344 533.0
154.06539916992188 24192.0
155.0703582763672 6112.0
156.08035278320312 7066.0
166.0655975341797 4233.0
167.0635528564453 16313.0
168.06814575195312 106569.0
179.0618438720703 498.0
180.06793212890625 537.0
181.0768280029297 25410.0
182.0847625732422 63130.0
182.53762817382812 2764.0
183.0935821533203 893283.0
183.79306030273438 1208.0
183.9414825439453 574.0
184.1109161376953 447.0
184.2556610107422 177.0
184.47288513183594 190.0
185.06614685058594 210.0

Name: Ellipticine
Precursor_mz: 247.1235533
Cas: 519-23-3
Adduct: [M+H]+
Mz: 247.1229749
Comment: Major
Smiles: Cc1c2ccncc2c(C)c2c1[nH]c1ccccc12
Formula: C17H14N2
Mix: Alkaloids-pos-mix11
Rt: [2.898]
Rt_apex: 2.897423718
Rt_start: 2.852383333
Rt_end: 4.581916667
Ms1_intensity: 1145999
N_scnas: 295
Ms1_scan_range: [694, 701, 990]
Reci_snr: 0.000735806
Ms2_scan_idx: 1372
Pmz_offset: 0.001598236
Entropy: 0.9209014177322388
Num Peaks: 23
151.05783081054688 655.0
176.05654907226562 1039.0
178.0620880126953 198.0
180.08839416503906 197.0
190.0706329345703 250.0
191.07415771484375 818.0
192.07254028320312 201.0
201.06564331054688 123.0
202.06982421875 458.0
204.0816650390625 18970.0
205.09132385253906 3404.0
206.0994415283203 202.0
216.07106018066406 514.0
218.09323120117188 511.0
219.09747314453125 299.0
220.1144256591797 177.0
231.0934600830078 154678.0
232.10150146484375 132069.0
244.10372924804688 544.0
245.1089630126953 8169.0
246.12066650390625 6904.0
246.37171936035156 574.0
247.12783813476562 221194.0

Name: Higenamine hydrochloride
Precursor_mz: 272.1282419
Cas: 11041-94-4
Adduct: [M+H]+
Mz: 272.1281199
Comment: Major
Smiles: Oc1ccc(CC2NCCc3cc(O)c(O)cc32)cc1
Formula: C16H17NO3
Mix: Alkaloids-pos-mix11
Rt: [1.612]
Rt_apex: 1.615251194
Rt_start: 1.5179
Rt_end: 1.761783333
Ms1_intensity: 703553
N_scnas: 47
Ms1_scan_range: [466, 484, 514]
Reci_snr: 0.000328875
Ms2_scan_idx: 668
Pmz_offset: 0.000871484
Entropy: 0.9861565232276917
Num Peaks: 69
51.023902893066406 705.0
55.01869201660156 728.0
65.0380630493164 218.0
77.03754425048828 10933.0
79.05337524414062 2974.0
89.03773498535156 669.0
91.05252838134766 3370.0
93.06820678710938 384.0
95.04711151123047 846.0
102.0478744506836 232.0
103.05547332763672 1686.0
105.0696792602539 1008.0
107.0496597290039 182745.0
115.05350494384766 20152.0
116.062744140625 251.0
117.06880187988281 1416.0
119.0479965209961 439.0
121.06230926513672 1642.0
123.04214477539062 7819.0
127.05473327636719 2445.0
130.04440307617188 219.0
131.0465545654297 1624.0
133.0623779296875 1536.0
135.04464721679688 206.0
137.05636596679688 505.0
141.06942749023438 228.0
143.04815673828125 13850.0
144.05868530273438 772.0
145.0677032470703 3664.0
146.07176208496094 164.0
147.04013061523438 204.0
149.05844116210938 624.0
152.0597686767578 703.0
153.068603515625 436.0
155.0595703125 300.0
157.06515502929688 205.0
161.05978393554688 10573.0
164.0657501220703 921.0
165.0703125 3434.0
166.0779266357422 1401.0
169.064453125 203.0
176.06202697753906 197.0
177.07272338867188 188.0
179.08026123046875 357.0
180.05438232421875 203.0
181.0613555908203 1194.0
182.06546020507812 192.0
183.07803344726562 208.0
189.0696258544922 1350.0
190.07630920410156 1159.0
191.0876007080078 1697.0
194.07308959960938 10169.0
195.0792694091797 379.0
197.06199645996094 600.0
198.0640411376953 221.0
201.0655059814453 524.0
207.08364868164062 436.0
208.08248901367188 193.0
209.09588623046875 3427.0
218.06822204589844 355.0
219.08070373535156 947.0
221.05636596679688 381.0
223.07443237304688 487.0
226.06069946289062 914.0
237.0880126953125 5740.0
239.06930541992188 271.0
240.07936096191406 1492.0
255.10662841796875 10819.0
272.1319885253906 2995.0

Name: Betaine
Precursor_mz: 118.0854585
Cas: 107-43-7
Adduct: [M+H]+
Mz: 118.0862551
Comment: Major
Smiles: C[N+](C)(C)CC(=O)[O-]
Formula: C5H11NO2
Mix: Alkaloids-pos-mix12
Rt: [0.285]
Rt_apex: 0.285210359
Rt_start: 0.234216667
Rt_end: 0.5186
Ms1_intensity: 462290
N_scnas: 61
Ms1_scan_range: [88, 95, 150]
Reci_snr: 4.83e-05
Ms2_scan_idx: 133
Pmz_offset: 0.00028991
Entropy: 0.9823837280273438
Num Peaks: 11
42.03415298461914 5341.0
43.041866302490234 2082.0
44.04847717285156 542.0
56.050777435302734 617.0
57.05863952636719 123.0
58.066932678222656 66032.0
59.07542419433594 6909.0
84.0432357788086 26.0
102.05903625488281 62.0
117.73461151123047 62.0
118.08966827392578 3392.0

Name: (±)-10-Hydroxycamptothecin
Precursor_mz: 365.1135817
Cas: 64439-81-2
Adduct: [M+H]+
Mz: 365.1131981
Comment: Major
Smiles: CCC1(O)C(=O)OCc2c1cc1n(c2=O)Cc2cc3cc(O)ccc3nc2-1
Formula: C20H16N2O5
Mix: Alkaloids-pos-mix12
Rt: [2.682]
Rt_apex: 2.680387249
Rt_start: 2.557716667
Rt_end: 2.891366667
Ms1_intensity: 742953
N_scnas: 49
Ms1_scan_range: [615, 633, 665]
Reci_snr: 0.000322401
Ms2_scan_idx: 1189
Pmz_offset: 0.002522181
Entropy: 0.9991938471794128
Num Peaks: 75
57.03428649902344 1615.0
156.0465545654297 92.0
182.0614776611328 276.0
183.0607452392578 426.0
184.0646514892578 9655.0
185.07704162597656 962.0
192.0780487060547 254.0
193.0771026611328 352.0
195.06533813476562 204.0
196.07408142089844 721.0
197.0736083984375 2599.0
198.0796356201172 504.0
199.08425903320312 441.0
205.0829315185547 282.0
207.0692901611328 569.0
208.0721435546875 425.0
209.08755493164062 591.0
210.09730529785156 952.0
211.0850067138672 374.0
218.08665466308594 92.0
219.0867156982422 209.0
220.07656860351562 1582.0
221.0707550048828 5760.0
222.08389282226562 5288.0
223.0867919921875 958.0
225.09933471679688 327.0
233.07920837402344 1139.0
234.08084106445312 2634.0
235.08889770507812 23466.0
236.09266662597656 18054.0
237.1029052734375 8717.0
238.08714294433594 92.0
239.11463928222656 173.0
246.08062744140625 166.0
247.08331298828125 1177.0
248.10128784179688 1023.0
249.1036376953125 1089.0
250.1146697998047 671.0
251.08770751953125 1322.0
252.08938598632812 324.0
258.0962219238281 198.0
259.08917236328125 478.0
260.0976257324219 979.0
261.1034851074219 712.0
262.0726623535156 4170.0
263.0845947265625 3561.0
264.0893859863281 15289.0
265.0983581542969 30710.0
267.11749267578125 229.0
273.1072082519531 184.0
275.11932373046875 2589.0
276.10015869140625 721.0
277.136474609375 1193.0
278.1045227050781 1235.0
279.0789489746094 505.0
280.0903015136719 258.0
288.08734130859375 579.0
290.06536865234375 633.0
291.1083984375 1307.0
292.0813293457031 738.0
293.13037109375 8557.0
303.1130676269531 1546.0
304.0960388183594 185.0
305.0928649902344 612.0
306.1011657714844 399.0
307.106201171875 654.0
308.08087158203125 925.0
309.12615966796875 227.0
319.10955810546875 4344.0
321.12579345703125 134084.0
336.0754089355469 5411.0
337.1207275390625 452.0
347.10089111328125 745.0
364.0035400390625 163.0
365.11553955078125 83094.0

Name: (±)-10-Hydroxycamptothecin
Precursor_mz: 387.0924699
Cas: 64439-81-2
Adduct: [M+Na]+
Mz: 387.0951423
Comment: Major
Smiles: CCC1(O)C(=O)OCc2c1cc1n(c2=O)Cc2cc3cc(O)ccc3nc2-1
Formula: C20H16N2O5
Mix: Alkaloids-pos-mix12
Rt: [2.682]
Rt_apex: 2.684848452
Rt_start: 2.644716667
Rt_end: 2.733533333
Ms1_intensity: 7971
N_scnas: 12
Ms1_scan_range: [628, 634, 641]
Reci_snr: 0.145727943
Ms2_scan_idx: 1207
Pmz_offset: 5.23e-05
Entropy: nan
Num Peaks: 1
387.1891174316406 62.0

Name: Stachydrine Hydrochloride
Precursor_mz: 144.1014984
Cas: 4136-37-2
Adduct: [M+H]+
Mz: 144.1019051
Comment: Major
Smiles: C[N+]1(C)CCC[C@H]1C(=O)[O-]
Formula: C7H13NO2
Mix: Alkaloids-pos-mix12
Rt: [0.308]
Rt_apex: 0.306066597
Rt_start: 0.234216667
Rt_end: 0.59135
Ms1_intensity: 1827390
N_scnas: 79
Ms1_scan_range: [88, 99, 168]
Reci_snr: 0.000117552
Ms2_scan_idx: 149
Pmz_offset: 0.001623794
Entropy: 0.9937430620193481
Num Peaks: 27
41.0401725769043 712.0
42.035064697265625 12581.0
43.0179328918457 1316.0
44.05033874511719 2331.0
46.06611633300781 522.0
53.039154052734375 541.0
54.03516387939453 93.0
55.05605697631836 1111.0
56.050777435302734 3282.0
57.05970001220703 154.0
58.066932678222656 31783.0
59.05061721801758 274.0
67.0439224243164 92.0
68.0496597290039 514.0
69.05821990966797 299.0
70.06714630126953 699.0
71.07392883300781 300.0
72.08432006835938 1158.0
82.06856536865234 902.0
84.08440399169922 15566.0
98.09879302978516 641.0
99.04763793945312 188.0
101.05775451660156 92.0
102.05620574951172 1608.0
128.0736846923828 154.0
143.666259765625 183.0
144.1022491455078 20861.0

Name: Lycorine
Precursor_mz: 288.1236795
Cas: 476-28-8
Adduct: [M+H]+
Mz: 288.1230345
Comment: Major
Smiles: O[C@H]1C=C2CCN3Cc4cc5c(cc4[C@H]([C@@H]1O)[C@@H]23)OCO5
Formula: C16H17NO4
Mix: Alkaloids-pos-mix12
Rt: [1.004]
Rt_apex: 0.998786834
Rt_start: 0.72585
Rt_end: 1.435966667
Ms1_intensity: 834556
N_scnas: 185
Ms1_scan_range: [209, 286, 395]
Reci_snr: 0.001711476
Ms2_scan_idx: 397
Pmz_offset: 0.001630092
Entropy: 0.9779300689697266
Num Peaks: 97
42.034175872802734 217.0
65.03797149658203 827.0
67.05660247802734 466.0
77.03744506835938 536.0
79.0520248413086 450.0
80.04960632324219 476.0
82.06480407714844 2927.0
83.05045318603516 2691.0
91.05509948730469 24569.0
94.06719207763672 487.0
95.0483627319336 4842.0
96.08000946044922 205.0
103.05392456054688 382.0
104.05071258544922 210.0
106.06880187988281 1647.0
107.05243682861328 236.0
110.0600357055664 465.0
111.06788635253906 2081.0
112.07736206054688 2670.0
115.05789184570312 428.0
116.05203247070312 384.0
117.07322692871094 181.0
119.04939270019531 85821.0
122.05860900878906 419.0
124.07467651367188 2570.0
128.06422424316406 194.0
129.06988525390625 382.0
130.0634765625 195.0
131.0512237548828 217.0
132.04432678222656 467.0
134.05966186523438 1980.0
135.0445098876953 1918.0
136.05096435546875 618.0
141.06594848632812 476.0
145.06585693359375 253.0
147.04678344726562 102753.0
149.05999755859375 2024.0
152.0613555908203 369.0
153.0753936767578 342.0
154.06668090820312 225.0
155.08563232421875 394.0
156.0798797607422 347.0
157.06851196289062 283.0
159.0427703857422 480.0
160.0691375732422 222.0
165.06834411621094 568.0
167.08663940429688 801.0
168.0821990966797 548.0
169.08984375 455.0
170.09500122070312 287.0
172.0792694091797 225.0
173.06002807617188 320.0
175.0391845703125 210.0
177.0557403564453 5824.0
180.0843505859375 372.0
181.09140014648438 289.0
183.08164978027344 348.0
184.1141815185547 605.0
185.06178283691406 190.0
188.06927490234375 283.0
192.0819549560547 414.0
193.0888214111328 659.0
194.10223388671875 3040.0
195.08103942871094 477.0
196.0721435546875 366.0
197.08743286132812 694.0
198.0994110107422 444.0
199.07240295410156 550.0
200.07357788085938 249.0
207.06932067871094 356.0
209.0814971923828 242.0
210.0851287841797 402.0
211.0870819091797 303.0
212.1098175048828 1419.0
213.08995056152344 402.0
214.0846710205078 509.0
221.08538818359375 264.0
222.09439086914062 3308.0
223.08262634277344 543.0
224.07516479492188 356.0
225.08042907714844 1190.0
226.0879364013672 884.0
227.0977020263672 377.0
228.10971069335938 307.0
237.07701110839844 389.0
238.08717346191406 475.0
239.09732055664062 251.0
240.1030731201172 1834.0
241.08697509765625 373.0
242.11654663085938 948.0
250.0902862548828 563.0
251.09219360351562 268.0
252.1050262451172 2567.0
255.09072875976562 293.0
268.1047058105469 253.0
270.1167907714844 6675.0
288.1278991699219 22354.0

Name: Cephalotaxine
Precursor_mz: 316.1558865
Cas: 24316-19-6
Adduct: [M+H]+
Mz: 316.1543346
Comment: Major
Smiles: COC1=C[C@]23CCCN2CCc2cc4c(cc2[C@@H]3[C@@H]1O)OCO4
Formula: C18H21NO4
Mix: Alkaloids-pos-mix12
Rt: [1.549]
Rt_apex: 1.538468199
Rt_start: 1.501466667
Rt_end: 1.969583333
Ms1_intensity: 2149948
N_scnas: 97
Ms1_scan_range: [415, 424, 513]
Reci_snr: 0.000268517
Ms2_scan_idx: 619
Pmz_offset: 0.002502633
Entropy: 0.9882237911224365
Num Peaks: 200
42.03324508666992 239.0
43.016090393066406 304.0
44.049407958984375 2100.0
45.0318717956543 464.0
53.04018020629883 197.0
55.01961898803711 647.0
56.04762649536133 1497.0
58.06479263305664 236.0
59.04954147338867 765.0
60.044742584228516 242.0
65.03793334960938 337.0
67.05311584472656 972.0
68.04734802246094 249.0
70.06362915039062 2685.0
71.04672241210938 195.0
77.03863525390625 1726.0
79.05448150634766 2347.0
80.04830932617188 592.0
81.06982421875 1203.0
82.06348419189453 517.0
83.0478515625 383.0
84.08055114746094 514.0
85.03160858154297 684.0
87.04401397705078 484.0
89.03492736816406 530.0
91.05370330810547 7239.0
93.06939697265625 1234.0
94.06305694580078 938.0
95.04557037353516 829.0
96.08133697509766 3982.0
97.0660171508789 1012.0
98.0584945678711 247.0
102.04911804199219 385.0
103.05387115478516 3697.0
105.06950378417969 866.0
106.06295776367188 718.0
107.0509262084961 517.0
108.07848358154297 999.0
109.06404876708984 2335.0
110.05997467041016 658.0
111.07817840576172 870.0
112.0772933959961 378.0
115.05481719970703 6496.0
116.06255340576172 449.0
117.06556701660156 1276.0
118.06527709960938 1571.0
119.05085754394531 5539.0
120.0789794921875 1001.0
121.06365203857422 660.0
122.09575653076172 306.0
123.07929992675781 807.0
124.0777359008789 1278.0
125.05979919433594 4377.0
126.08985900878906 991.0
127.05452728271484 1297.0
128.06097412109375 2945.0
129.06980895996094 5284.0
130.04100036621094 597.0
131.04954528808594 5447.0
132.07974243164062 340.0
133.06214904785156 922.0
134.06283569335938 154.0
135.0428009033203 5754.0
136.07217407226562 942.0
138.08819580078125 650.0
139.074462890625 1475.0
140.06423950195312 259.0
141.06753540039062 3555.0
142.06436157226562 876.0
143.0496063232422 2780.0
144.08035278320312 1154.0
145.0640869140625 2222.0
146.06134033203125 718.0
147.04330444335938 1330.0
148.0746612548828 995.0
149.05819702148438 19575.0
150.0914306640625 7932.0
151.07818603515625 1166.0
152.06300354003906 3356.0
153.06661987304688 5718.0
154.07704162597656 1457.0
155.08554077148438 5735.0
156.08154296875 1070.0
157.06491088867188 4043.0
158.09547424316406 929.0
159.0426788330078 2588.0
160.05307006835938 1220.0
161.0595245361328 3187.0
162.0637969970703 308.0
163.07296752929688 495.0
164.06369018554688 270.0
165.06825256347656 7588.0
166.07766723632812 2953.0
167.08836364746094 2467.0
168.06027221679688 1069.0
169.06602478027344 1815.0
170.0948944091797 3810.0
171.10487365722656 4610.0
172.1123046875 5286.0
173.06178283691406 5566.0
174.052734375 2274.0
175.06137084960938 939.0
176.0729217529297 2500.0
177.05751037597656 289.0
178.07669067382812 1209.0
179.08750915527344 3111.0
180.08236694335938 1152.0
181.06863403320312 5396.0
182.07275390625 1225.0
183.08155822753906 4810.0
184.0817108154297 956.0
185.0616912841797 7503.0
186.07298278808594 3025.0
187.07742309570312 12569.0
188.0691680908203 1040.0
189.07705688476562 1505.0
190.0818328857422 2386.0
191.0873260498047 3181.0
192.09352111816406 437.0
193.06336975097656 1323.0
194.0727996826172 1414.0
195.08290100097656 2785.0
196.07989501953125 916.0
197.05776977539062 1826.0
198.09140014648438 4277.0
199.07823181152344 4883.0
200.10324096679688 5133.0
201.0771484375 2147.0
202.08534240722656 5316.0
203.07806396484375 442.0
204.09727478027344 539.0
205.0868682861328 645.0
206.09095764160156 274.0
207.08334350585938 1441.0
208.10647583007812 2631.0
209.0955810546875 4553.0
210.06466674804688 1510.0
211.07269287109375 5294.0
212.06881713867188 2878.0
213.08982849121094 4931.0
214.08865356445312 44431.0
215.06922912597656 1823.0
216.10360717773438 1593.0
217.0887908935547 193.0
218.07205200195312 351.0
219.0803985595703 2372.0
220.0785675048828 390.0
221.06231689453125 407.0
222.0691680908203 1695.0
223.07830810546875 3860.0
224.07504272460938 2635.0
225.08660888671875 4061.0
226.10047912597656 7041.0
227.0912322998047 6023.0
228.10110473632812 41822.0
229.10897827148438 178657.0
230.116943359375 10842.0
233.0812530517578 154.0
235.0780487060547 329.0
236.107666015625 2450.0
237.0919952392578 12222.0
238.09136962890625 4256.0
239.07113647460938 10304.0
240.10076904296875 7057.0
241.09120178222656 3165.0
242.11422729492188 12701.0
243.10223388671875 499.0
244.0988311767578 467.0
250.09014892578125 681.0
251.10540771484375 3159.0
252.1026611328125 1492.0
253.11080932617188 1958.0
254.11651611328125 10133.0
255.10403442382812 2834.0
256.1338806152344 8754.0
257.1028137207031 251.0
258.1096496582031 654.0
265.1119689941406 308.0
266.1183166503906 17820.0
267.124267578125 2895.0
268.1022644042969 1881.0
269.1142578125 1134.0
270.1189270019531 3755.0
271.1324157714844 249.0
273.11175537109375 203.0
281.1127624511719 797.0
282.1136474609375 1560.0
283.1234130859375 825.0
284.12786865234375 180646.0
285.136474609375 558.0
286.14208984375 245.0
288.1181945800781 566.0
294.1161804199219 575.0
296.13165283203125 878.0
298.146728515625 9414.0
299.1386413574219 618.0
300.1224670410156 301.0
301.12982177734375 464.0
315.1907043457031 883.0
316.15814208984375 185731.0

Name: Jervine
Precursor_mz: 426.2992583
Cas: 469-59-0
Adduct: [M+H]+
Mz: 426.3002706
Comment: Major
Smiles: CC1=C2C(=O)C3C(CC=C4CC(O)CCC43C)C2CCC12OC1CC(C)CNC1C2C
Formula: C27H39NO3
Mix: Alkaloids-pos-mix12
Rt: [3.007]
Rt_apex: 3.005217912
Rt_start: 2.937016667
Rt_end: 3.089183333
Ms1_intensity: 11650394
N_scnas: 22
Ms1_scan_range: [672, 682, 695]
Reci_snr: 2.5e-05
Ms2_scan_idx: 1444
Pmz_offset: 0.000701134
Entropy: 0.9366936087608337
Num Peaks: 167
41.03928756713867 1308.0
42.03416442871094 478.0
44.04941940307617 295.0
55.05398941040039 2108.0
67.05428314208984 15020.0
69.06990051269531 535.0
70.0648193359375 1599.0
72.04383850097656 613.0
77.03742218017578 1462.0
79.05449676513672 4095.0
80.0495834350586 1179.0
81.06857299804688 9409.0
82.0634994506836 888.0
83.04914855957031 2271.0
84.08056640625 22245.0
85.06398010253906 8181.0
91.05506896972656 5035.0
93.06941223144531 5946.0
94.06443786621094 449.0
95.08527374267578 3222.0
96.07860565185547 5640.0
97.06465148925781 659.0
98.09603881835938 3840.0
99.07978820800781 497.0
100.0782699584961 1104.0
101.06201171875 441.0
102.0916748046875 4307.0
105.06952667236328 9352.0
107.0843505859375 6685.0
109.10218811035156 38545.0
110.09828186035156 469.0
114.09197235107422 62042.0
115.05484771728516 788.0
117.07015228271484 1829.0
119.08610534667969 6356.0
121.10227966308594 8628.0
122.09733581542969 481.0
123.07933044433594 1211.0
124.110595703125 1477.0
125.0959243774414 509.0
126.1277084350586 6166.0
127.05297088623047 526.0
128.06100463867188 988.0
129.06983947753906 2100.0
130.0778350830078 782.0
133.10104370117188 4551.0
137.09725952148438 526.0
140.10580444335938 1280.0
141.07090759277344 950.0
143.0848846435547 3170.0
144.09555053710938 241.0
145.10130310058594 13942.0
147.11651611328125 2769.0
148.1105499267578 232.0
149.09593200683594 9371.0
150.13101196289062 171.0
151.1144561767578 571.0
152.14610290527344 260.0
153.07012939453125 431.0
154.08056640625 229.0
155.0873260498047 1777.0
156.09385681152344 942.0
157.1018829345703 7872.0
158.10963439941406 195.0
161.09518432617188 1001.0
163.1106414794922 905.0
165.07188415527344 378.0
166.0777130126953 295.0
167.0865936279297 817.0
168.0930633544922 349.0
169.10072326660156 1610.0
170.1150665283203 171.0
171.1159210205078 3488.0
173.09689331054688 1983.0
175.1134033203125 6361.0
178.07672119140625 284.0
181.1007843017578 1556.0
182.11256408691406 282.0
183.1195831298828 1925.0
184.12364196777344 405.0
187.1139373779297 1654.0
189.1234130859375 1201.0
191.10870361328125 278.0
192.09356689453125 374.0
193.0965576171875 996.0
194.1041259765625 405.0
195.11627197265625 2203.0
196.12515258789062 433.0
197.13662719726562 1848.0
198.10330200195312 691.0
199.1475830078125 2307.0
201.1229705810547 525.0
205.0969696044922 501.0
206.109130859375 259.0
207.12176513671875 1020.0
208.12474060058594 321.0
211.148193359375 1792.0
212.12405395507812 196.0
213.16363525390625 1909.0
217.1632843017578 456.0
219.11782836914062 694.0
221.13331604003906 1383.0
222.1466064453125 222.0
223.1475372314453 921.0
227.14414978027344 844.0
229.16001892089844 404.0
231.1207733154297 319.0
232.12460327148438 298.0
233.12844848632812 858.0
235.15341186523438 1541.0
239.18186950683594 366.0
241.16098022460938 402.0
245.13706970214844 261.0
246.14222717285156 390.0
248.15650939941406 356.0
249.16783142089844 909.0
253.1599884033203 1218.0
255.1758270263672 469.0
257.13214111328125 203.0
259.1568908691406 323.0
263.18017578125 355.0
265.1988525390625 1183.0
267.1748046875 559.0
271.15557861328125 293.0
273.172119140625 364.0
275.186767578125 1430.0
277.19482421875 4138.0
278.16766357421875 503.0
283.20611572265625 551.0
284.1515808105469 233.0
285.186279296875 303.0
287.1781311035156 321.0
289.1959533691406 603.0
293.1927795410156 1658.0
295.20751953125 5204.0
299.1896667480469 311.0
301.20050048828125 482.0
303.21807861328125 257.0
307.2070007324219 285.0
309.1927185058594 194.0
311.19970703125 2150.0
313.2206115722656 28336.0
315.2057189941406 195.0
317.1995849609375 273.0
329.2159118652344 254.0
331.20758056640625 228.0
336.21429443359375 498.0
337.2185974121094 378.0
349.2165832519531 1003.0
351.23358154296875 1074.0
352.2231750488281 293.0
361.2615966796875 262.0
363.259521484375 251.0
373.25860595703125 332.0
379.2636413574219 1687.0
391.2648010253906 2792.0
392.27032470703125 218.0
406.2737731933594 181.0
408.2930908203125 9990.0
409.2804870605469 470.0
411.2901916503906 187.0
424.99237060546875 1593.0
426.3039245605469 798378.0
427.36798095703125 855.0
427.5971984863281 864.0
427.8584289550781 363.0
427.9658203125 214.0

Name: Nuciferine
Precursor_mz: 296.1639718
Cas: 475-83-2
Adduct: [M+H]+
Mz: 296.1645054
Comment: Major
Smiles: COc1cc2c3c(c1OC)-c1ccccc1C[C@H]3N(C)CC2
Formula: C19H21NO2
Mix: Alkaloids-pos-mix12
Rt: [2.903]
Rt_apex: 2.903179879
Rt_start: 2.857033333
Rt_end: 3.076183333
Ms1_intensity: 6018791
N_scnas: 32
Ms1_scan_range: [660, 667, 693]
Reci_snr: 0.000123132
Ms2_scan_idx: 1343
Pmz_offset: 0.000484165
Entropy: 0.9978786706924438
Num Peaks: 88
42.03144454956055 174.0
43.01795196533203 206.0
44.05036163330078 19202.0
47.0485725402832 206.0
55.01756286621094 590.0
58.063751220703125 466.0
75.04156494140625 433.0
85.02906036376953 401.0
115.0533676147461 624.0
126.05052185058594 92.0
127.05458068847656 575.0
128.0626220703125 3401.0
139.05136108398438 456.0
141.07093811035156 925.0
150.0467987060547 258.0
151.0506591796875 1012.0
152.06134033203125 3328.0
153.0718994140625 1049.0
154.07711791992188 316.0
155.0856170654297 474.0
163.05332946777344 582.0
164.0601806640625 950.0
165.06832885742188 22225.0
166.07955932617188 1582.0
167.08480834960938 1827.0
168.06581115722656 92.0
169.0624542236328 311.0
176.06182861328125 2592.0
177.07066345214844 7294.0
178.07864379882812 109652.0
179.08570861816406 191599.0
180.0956268310547 1089.0
181.0630645751953 1317.0
182.07473754882812 182.0
187.05831909179688 617.0
188.0615692138672 872.0
189.07135009765625 97065.0
190.07998657226562 72220.0
191.08741760253906 257161.0
192.09555053710938 6079.0
193.0810089111328 12158.0
194.1061248779297 1839.0
195.07907104492188 4651.0
200.0616455078125 780.0
201.07127380371094 8388.0
202.0774688720703 53943.0
203.08615112304688 122957.0
204.09335327148438 13561.0
205.09701538085938 20689.0
206.07493591308594 9784.0
207.0814208984375 184505.0
208.08631896972656 3649.0
209.09974670410156 577.0
210.10748291015625 92.0
213.0653533935547 725.0
214.07643127441406 1864.0
215.08578491210938 8909.0
216.095458984375 342.0
217.06614685058594 41263.0
218.07421875 77364.0
219.0825653076172 227953.0
220.0869903564453 8706.0
221.0791015625 67588.0
222.1027374267578 23475.0
223.07630920410156 4399.0
224.0835418701172 544.0
231.08029174804688 11887.0
232.09043884277344 5560.0
233.0985107421875 66480.0
234.1066131591797 555064.0
235.07815551757812 705500.0
236.0840606689453 54064.0
237.0921173095703 8105.0
238.0979766845703 5828.0
239.10597229003906 570.0
240.1117401123047 222.0
247.0767059326172 211.0
248.1167755126953 571.0
249.09478759765625 41911.0
250.1013641357422 723272.0
251.07215881347656 485.0
252.11390686035156 391.0
253.11985778808594 3558.0
263.1142272949219 182.0
264.1190490722656 301.0
265.12579345703125 746344.0
267.1427307128906 373.0
296.16558837890625 44832.0

Name: Veratramine
Precursor_mz: 410.3052113
Cas: 60-70-8
Adduct: [M+H]+
Mz: 410.305356
Comment: Major
Smiles: Cc1c([C@H](C)[C@@H]2NC[C@@H](C)C[C@H]2O)ccc2c1C[C@H]1[C@H]2CC=C2C[C@@H](O)CC[C@@]21C
Formula: C27H39NO2
Mix: Alkaloids-pos-mix12
Rt: [3.078]
Rt_apex: 3.072873838
Rt_start: 3.037183333
Rt_end: 3.3825
Ms1_intensity: 9317922
N_scnas: 51
Ms1_scan_range: [687, 692, 739]
Reci_snr: 3.76e-05
Ms2_scan_idx: 1497
Pmz_offset: 0.001250544
Entropy: 0.9649403095245361
Num Peaks: 170
41.03926467895508 2240.0
42.03414535522461 1817.0
43.017921447753906 2270.0
44.048465728759766 335.0
55.052921295166016 1800.0
56.049713134765625 606.0
57.070289611816406 3145.0
58.06584930419922 2618.0
65.03791809082031 440.0
67.05424499511719 5196.0
68.04732513427734 480.0
69.05703735351562 693.0
70.06713104248047 709.0
72.0438003540039 177.0
77.03861236572266 1196.0
79.05320739746094 2741.0
80.0495376586914 788.0
81.0698013305664 1801.0
82.06473541259766 2425.0
83.0478286743164 891.0
84.08181762695312 281934.0
85.06523132324219 16569.0
91.05368041992188 9267.0
93.06937408447266 3496.0
94.06303405761719 552.0
95.0838623046875 2234.0
96.08130645751953 3748.0
97.06598663330078 312.0
98.09599304199219 4685.0
99.08393096923828 297.0
100.07401275634766 859.0
102.0902099609375 3342.0
103.05099487304688 515.0
105.06947326660156 16344.0
107.08429718017578 5273.0
108.08137512207031 230.0
109.09773254394531 802.0
113.09577941894531 373.0
114.0919189453125 131692.0
115.05328369140625 3255.0
116.06403350830078 953.0
117.0700912475586 2716.0
118.07744598388672 407.0
119.08757781982422 3895.0
121.10067749023438 1370.0
122.09417724609375 319.0
123.08393859863281 241.0
124.11366271972656 28699.0
125.09586334228516 915.0
127.05290985107422 381.0
128.06094360351562 2483.0
129.0681915283203 4481.0
130.076171875 906.0
131.08485412597656 34406.0
133.10260009765625 42927.0
135.1177978515625 214.0
141.07249450683594 3058.0
142.1228790283203 14527.0
143.08648681640625 7487.0
144.09547424316406 595.0
145.1012420654297 11271.0
147.11814880371094 1133.0
151.11265563964844 1093.0
152.06642150878906 356.0
153.07005310058594 1506.0
154.07699584960938 1662.0
155.0854949951172 3868.0
156.09378051757812 4063.0
157.101806640625 57621.0
159.11697387695312 25229.0
161.13607788085938 429.0
163.1123504638672 372.0
165.07000732421875 851.0
166.07763671875 620.0
167.0865020751953 1225.0
168.09661865234375 1797.0
169.1042938232422 13592.0
170.1058349609375 575.0
171.11767578125 63424.0
173.09681701660156 910.0
175.10960388183594 419.0
178.07664489746094 291.0
179.08746337890625 1228.0
180.09173583984375 760.0
181.1025848388672 3741.0
182.11058044433594 1463.0
183.11758422851562 12872.0
184.12545776367188 824.0
185.1322784423828 1683.0
191.0853271484375 550.0
192.09153747558594 751.0
193.10037231445312 2024.0
194.10989379882812 818.0
195.1161651611328 4017.0
196.13095092773438 760.0
197.13258361816406 4068.0
198.13876342773438 173.0
199.14947509765625 256.0
205.10289001464844 635.0
206.11105346679688 1856.0
207.11358642578125 4057.0
208.1266632080078 498.0
209.13612365722656 3052.0
210.1419219970703 243.0
211.14808654785156 5695.0
218.10308837890625 281.0
219.1197967529297 1068.0
220.1263885498047 1225.0
221.13320922851562 5131.0
222.1402130126953 1003.0
223.15162658691406 805.0
224.15481567382812 369.0
225.16656494140625 362.0
227.1376953125 452.0
232.12661743164062 161.0
233.134765625 3217.0
234.1407928466797 874.0
235.1490020751953 5200.0
236.15936279296875 972.0
237.16542053222656 1421.0
238.16709899902344 332.0
239.17308044433594 207.0
245.13916015625 387.0
246.14431762695312 189.0
247.14491271972656 2230.0
248.1541748046875 1840.0
249.1610565185547 1453.0
251.17872619628906 695.0
253.15316772460938 262.0
259.1432189941406 241.0
261.1690673828125 686.0
262.17474365234375 4213.0
263.1846008300781 410.0
265.16217041015625 436.0
267.17926025390625 204.0
275.1773376464844 305.0
277.1947021484375 10910.0
280.1840515136719 1521.0
281.1903381347656 3215.0
286.16815185546875 220.0
291.21356201171875 182.0
294.3038635253906 1886.0
295.20977783203125 836353.0
296.0953369140625 465.0
296.2160949707031 491.0
297.2265625 201.0
301.2003479003906 478.0
305.1956481933594 173.0
307.2166748046875 231.0
309.22216796875 980.0
317.22943115234375 379.0
319.2096252441406 2829.0
320.2108154296875 1125.0
321.22113037109375 1220.0
333.2255859375 1636.0
335.2421569824219 550.0
348.2310485839844 211.0
362.2516784667969 604.0
363.2566833496094 667.0
375.2783508300781 4392.0
376.27130126953125 492.0
377.2737121582031 438.0
392.29791259765625 76243.0
393.2852783203125 992.0
409.044677734375 2035.0
410.3115234375 820665.0
411.3668518066406 973.0
411.49493408203125 1029.0
411.8309326171875 464.0
411.9533996582031 219.0

Name: Protopine
Precursor_mz: 354.1341137
Cas: 130-86-9
Adduct: [M+H]+
Mz: 354.1335992
Comment: Major
Smiles: CN1CCc2cc3c(cc2C(=O)Cc2ccc4c(c2C1)OCO4)OCO3
Formula: C20H19NO5
Mix: Alkaloids-pos-mix12
Rt: [2.542]
Rt_apex: 2.548360663
Rt_start: 2.495383333
Rt_end: 2.857033333
Ms1_intensity: 4479716
N_scnas: 54
Ms1_scan_range: [605, 613, 660]
Reci_snr: 9.99e-05
Ms2_scan_idx: 1074
Pmz_offset: 0.002292431
Entropy: 0.9888322353363037
Num Peaks: 174
42.03417205810547 662.0
44.0494270324707 22235.0
51.024818420410156 296.0
55.01860046386719 266.0
56.05080032348633 215.0
58.065887451171875 2417.0
65.04022216796875 706.0
77.0398941040039 4993.0
79.05451202392578 4320.0
81.07111358642578 336.0
89.03761291503906 1888.0
91.05374145507812 38413.0
93.0694351196289 1615.0
94.03995513916016 481.0
95.04560852050781 178.0
102.04348754882812 1032.0
103.05533599853516 5168.0
105.02926635742188 674.0
107.04951477050781 30705.0
108.04351806640625 223.0
109.06409454345703 2990.0
115.05486297607422 1816.0
116.05050659179688 851.0
117.03221130371094 796.0
118.06227111816406 2838.0
119.04937744140625 31573.0
120.08209991455078 1242.0
121.06832885742188 833.0
128.05149841308594 252.0
130.06504821777344 10870.0
131.0704803466797 15787.0
132.0797882080078 4365.0
133.06382751464844 368.0
135.0444793701172 52334.0
136.0509490966797 476.0
137.0594940185547 917.0
141.0709228515625 213.0
142.06610107421875 376.0
143.05300903320312 1206.0
144.08041381835938 1217.0
145.04893493652344 253.0
146.05970764160156 3150.0
147.04505920410156 26430.0
148.076416015625 2280.0
149.0599822998047 317000.0
150.04507446289062 306.0
151.0506591796875 996.0
152.0613250732422 2557.0
153.07015991210938 1076.0
157.02980041503906 297.0
158.06201171875 1608.0
159.0657501220703 39715.0
160.07443237304688 18271.0
161.06137084960938 3073.0
162.0477752685547 363.0
163.0389862060547 14999.0
164.07275390625 431.0
165.05569458007812 74145.0
166.08316040039062 872.0
167.08480834960938 13041.0
170.06385803222656 248.0
172.053466796875 507.0
173.0618438720703 4377.0
174.05279541015625 9534.0
175.03915405273438 22889.0
176.06927490234375 9869.0
177.07626342773438 19139.0
178.08612060546875 15069.0
179.08758544921875 21759.0
180.05230712890625 279.0
181.05926513671875 1352.0
185.05030822753906 295.0
186.0596466064453 586.0
187.0391082763672 3373.0
188.0711669921875 1139267.0
189.0790557861328 744450.0
190.08770751953125 17274.0
191.08352661132812 4960.0
192.10333251953125 3207.0
193.06735229492188 1729.0
194.0748291015625 441.0
195.0810089111328 32972.0
200.06759643554688 736.0
201.07325744628906 1700.0
202.07945251464844 868.0
203.08615112304688 495.0
204.06527709960938 5268.0
205.06686401367188 13209.0
206.08297729492188 128312.0
207.08140563964844 39800.0
208.05392456054688 261.0
209.06117248535156 24257.0
210.06271362304688 431.0
211.0768585205078 898.0
217.06613159179688 36387.0
218.07421875 1349.0
219.08047485351562 6931.0
220.11404418945312 715.0
221.05613708496094 1293.0
222.0692596435547 3022.0
223.07839965820312 13602.0
224.0877227783203 186.0
225.093017578125 9341.0
231.07814025878906 499.0
232.07760620117188 322.0
233.06849670410156 2249.0
234.07009887695312 650.0
235.07814025878906 56393.0
236.07757568359375 403.0
237.0834503173828 14143.0
238.06332397460938 1463.0
239.0712432861328 978.0
245.0602264404297 5148.0
246.0696258544922 1403.0
247.07669067382812 119904.0
248.10350036621094 2152.0
249.09034729003906 4003.0
250.06361389160156 1304.0
251.0677032470703 2668.0
252.08047485351562 176.0
253.08636474609375 8463.0
259.07562255859375 503.0
261.0943908691406 1088.0
262.0749206542969 929.0
263.0732116699219 15119.0
264.08026123046875 640.0
265.0892028808594 39684.0
266.0566101074219 2347.0
267.0670471191406 21106.0
269.0844421386719 817.0
273.0538635253906 237.0
274.0798034667969 475.0
275.07275390625 158503.0
276.1048278808594 2289.0
277.0850830078125 3722.0
278.1162109375 10580.0
279.0695495605469 1489.0
280.06915283203125 1640.0
281.08465576171875 1378.0
283.0951843261719 5340.0
288.094482421875 186.0
289.08148193359375 944.0
290.08209228515625 941.0
292.0765380859375 2758.0
293.084716796875 26576.0
294.08740234375 242.0
295.09906005859375 14519.0
296.12451171875 276.0
297.08160400390625 177.0
303.0617370605469 247.0
304.1009216308594 2024.0
305.08306884765625 18836.0
306.1134338378906 10628.0
307.1012878417969 2640.0
308.0710144042969 326.0
311.09576416015625 4358.0
319.0794677734375 589.0
320.09552001953125 24230.0
321.0981140136719 11742.0
323.0928649902344 19800.0
324.13043212890625 1384.0
326.147216796875 884.0
332.0944519042969 1563.0
334.1101989746094 11068.0
335.1164855957031 210.0
336.1268615722656 68681.0
339.1180419921875 174.0
353.048095703125 3233.0
354.1379699707031 782303.0
355.11578369140625 1859.0
355.2347717285156 1643.0
355.3882141113281 345.0
355.55224609375 562.0
355.6607666015625 256.0

Name: Protopine
Precursor_mz: 376.1167603
Cas: 130-86-9
Adduct: [M+Na]+
Mz: 376.1155434
Comment: Major
Smiles: CN1CCc2cc3c(cc2C(=O)Cc2ccc4c(c2C1)OCO4)OCO3
Formula: C20H19NO5
Mix: Alkaloids-pos-mix12
Rt: [2.542]
Rt_apex: 2.536308488
Rt_start: 2.495383333
Rt_end: 2.61705
Ms1_intensity: 7018
N_scnas: 18
Ms1_scan_range: [605, 611, 624]
Reci_snr: 0.046218388
Ms2_scan_idx: 1075
Pmz_offset: 0.001922863
Entropy: 0.9999997615814209
Num Peaks: 32
77.03496551513672 242.0
89.0402603149414 93.0
91.05374145507812 1159.0
103.05248260498047 235.0
107.05097198486328 184.0
118.06074523925781 93.0
119.04631042480469 296.0
130.066650390625 363.0
131.0720977783203 564.0
135.0395965576172 355.0
147.04336547851562 440.0
149.0599822998047 961.0
159.0692901611328 1042.0
160.07798767089844 392.0
167.08299255371094 291.0
177.06878662109375 252.0
179.08193969726562 407.0
188.0711669921875 5843.0
189.07713317871094 3438.0
191.07769775390625 190.0
195.0810089111328 237.0
205.06484985351562 184.0
206.08700561523438 194.0
207.0793914794922 363.0
209.06117248535156 265.0
217.0681915283203 519.0
235.08029174804688 269.0
247.07228088378906 339.0
248.10791015625 93.0
275.0611267089844 239.0
320.093017578125 185.0
376.1191101074219 169.0

Name: Mimosine
Precursor_mz: 199.0701037
Cas: 500-44-7
Adduct: [M+H]+
Mz: 199.0713333
Comment: Major
Smiles: N[C@@H](Cn1ccc(=O)c(O)c1)C(=O)O
Formula: C8H10N2O4
Mix: Alkaloids-pos-mix13
Rt: [0.284]
Rt_apex: 0.280163219
Rt_start: 0.2511
Rt_end: 0.367916667
Ms1_intensity: 1782
N_scnas: 17
Ms1_scan_range: [91, 95, 109]
Reci_snr: 0.038358704
Ms2_scan_idx: 127
Pmz_offset: 0.002300031
Entropy: 1.0
Num Peaks: 4
42.03413391113281 93.0
66.03195190429688 93.0
72.98905944824219 93.0
112.03562927246094 348.0

Name: Vinorelbine ditartrate
Precursor_mz: 779.4014892
Cas: 125317-39-7
Adduct: [M+H]+
Mz: 779.4014412
Comment: Major
Smiles: CCC1=C[C@@H]2CN(C1)Cc1c([nH]c3ccccc13)[C@@](C(=O)OC)(c1cc3c(cc1OC)N(C)[C@H]1[C@@](O)(C(=O)OC)[C@H](OC(C)=O)[C@]4(CC)C=CCN5CC[C@]31[C@@H]54)C2
Formula: C45H54N4O8
Mix: Alkaloids-pos-mix13
Rt: [3.36]
Rt_apex: 3.358721117
Rt_start: 3.17705
Rt_end: 5.208666667
Ms1_intensity: 4777897
N_scnas: 408
Ms1_scan_range: [777, 805, 1186]
Reci_snr: 0.0020789
Ms2_scan_idx: 1642
Pmz_offset: 0.000755276
Entropy: 0.9483715295791626
Num Peaks: 311
77.03523254394531 309.0
80.0511245727539 235.0
84.08087158203125 1037.0
91.0540542602539 348.0
92.0490493774414 229.0
93.05621337890625 786.0
94.06478118896484 460.0
95.0842514038086 393.0
98.09639739990234 874.0
105.07134246826172 308.0
106.0662612915039 810.0
107.0731201171875 1436.0
108.08036041259766 1703.0
110.09574127197266 2302.0
119.03446960449219 205.0
120.07943725585938 199.0
121.0872802734375 2057.0
122.09622192382812 109106.0
124.1094741821289 1165.0
130.06390380859375 623.0
133.0642852783203 607.0
134.09747314453125 472.0
135.10693359375 399.0
136.11033630371094 2173.0
140.06809997558594 238.0
144.07752990722656 1231.0
154.06195068359375 742.0
156.08038330078125 308.0
158.10137939453125 478.0
160.07142639160156 187.0
162.08941650390625 840.0
164.1056671142578 427.0
167.06723022460938 2749.0
168.0809326171875 350.0
170.09188842773438 330.0
172.11480712890625 195.0
174.0885772705078 429.0
176.11270141601562 208.0
179.0581512451172 223.0
180.0830535888672 436.0
181.09010314941406 273.0
182.0583038330078 484.0
186.09091186523438 268.0
187.0992431640625 293.0
188.10646057128906 5817.0
192.10203552246094 1230.0
193.08750915527344 526.0
194.08135986328125 877.0
196.11209106445312 559.0
198.09609985351562 701.0
200.10797119140625 2003.0
202.08412170410156 1635.0
204.1000518798828 275.0
206.11793518066406 241.0
207.0881805419922 327.0
208.07284545898438 169.0
210.12242126464844 353.0
212.10845947265625 583.0
214.08535766601562 16151.0
215.11326599121094 273.0
216.10443115234375 442.0
222.11184692382812 6613.0
224.12840270996094 7404.0
226.1519775390625 383.0
228.099853515625 500.0
230.11781311035156 356.0
232.09548950195312 474.0
234.1288604736328 383.0
236.1344451904297 279.0
237.14044189453125 302.0
238.1442413330078 539.0
239.15451049804688 446.0
240.10166931152344 10296.0
242.11297607421875 343.0
246.12109375 1043.0
247.14151000976562 508.0
248.130859375 199.0
249.1421356201172 236.0
250.1243896484375 191.0
251.15528869628906 504.0
252.10137939453125 640.0
258.1128845214844 14655.0
260.1256408691406 4674.0
261.1429138183594 804.0
262.1212463378906 589.0
263.15606689453125 4343.0
264.16326904296875 257.0
265.12896728515625 190.0
272.13262939453125 2149.0
273.1429138183594 379.0
274.1295471191406 424.0
275.13653564453125 414.0
278.1475830078125 212.0
280.1288146972656 621.0
282.1241455078125 259.0
284.121826171875 297.0
287.1434631347656 745.0
289.13494873046875 417.0
290.1499938964844 194.0
291.1524658203125 15098.0
292.166259765625 257.0
293.1673889160156 228.0
294.1509704589844 964.0
295.1868591308594 450.0
296.1303405761719 309.0
297.1455078125 224.0
298.1527099609375 276.0
299.1106262207031 276.0
300.1163024902344 179.0
302.1424255371094 354.0
304.16314697265625 571.0
305.1674499511719 261.0
306.1537780761719 761.0
307.1834716796875 887.0
309.1962890625 253.0
312.162109375 179.0
314.1463317871094 270.0
315.14703369140625 291.0
317.1582336425781 231.0
319.1808166503906 1988.0
320.1593933105469 197.0
321.1595458984375 1640.0
322.1688537597656 267.0
323.17718505859375 71683.0
325.1328125 736.0
326.13311767578125 198.0
327.1527404785156 549.0
328.1662902832031 261.0
329.1636047363281 1662.0
330.1752014160156 247.0
331.1806640625 723.0
332.1595153808594 249.0
333.1910705566406 227.0
335.1792907714844 366.0
337.1991882324219 282.0
339.1424560546875 188.0
341.16387939453125 356.0
342.14178466796875 225.0
343.1835021972656 969.0
345.1569519042969 391.0
347.1778869628906 4985.0
349.1916198730469 720.0
350.17572021484375 304.0
351.1795959472656 233.0
353.1864318847656 417.0
355.13812255859375 782.0
356.1596984863281 441.0
357.1615295410156 18853.0
358.16473388671875 218.0
359.1746826171875 1002.0
360.15142822265625 173.0
361.1321716308594 219.0
362.1783447265625 334.0
363.17523193359375 491.0
364.1841735839844 338.0
365.1891784667969 1138.0
366.1955261230469 355.0
367.1979064941406 1118.0
369.1582336425781 189.0
371.1697692871094 211.0
373.1650390625 243.0
374.1769104003906 423.0
375.1820068359375 557.0
377.1825866699219 1481.0
379.2048645019531 26228.0
381.2270812988281 2101.0
384.1673583984375 234.0
385.1609802246094 360.0
386.1861877441406 1957.0
387.1796569824219 886.0
388.18267822265625 781.0
389.18701171875 24996.0
391.19677734375 319.0
393.2200927734375 327.0
395.17327880859375 514.0
396.2005615234375 185.0
397.2095947265625 4973.0
401.1799011230469 674.0
403.2119140625 2002.0
407.2007141113281 1578.0
409.2109680175781 845.0
413.1807556152344 234.0
415.1828308105469 213.0
417.1840515136719 341.0
418.2165832519531 236.0
419.2130126953125 342.0
421.2267761230469 311.0
424.2159729003906 179.0
425.2021789550781 344.0
427.2012634277344 2905.0
429.2224426269531 168.0
431.2017822265625 202.0
433.2265625 331.0
435.2063293457031 363.0
436.2403869628906 248.0
438.17120361328125 414.0
439.2293701171875 596.0
446.2541809082031 318.0
448.24859619140625 220.0
449.20880126953125 679.0
450.25640869140625 2341.0
451.17999267578125 460.0
452.26568603515625 310.0
453.2122497558594 211.0
454.2525329589844 402.0
455.2191467285156 303.0
456.23175048828125 241.0
457.2364807128906 54619.0
459.20111083984375 313.0
461.22723388671875 359.0
463.2215576171875 207.0
464.2279052734375 857.0
467.2200927734375 5136.0
468.26416015625 198.0
469.2364501953125 21365.0
476.2359924316406 272.0
478.24713134765625 4737.0
479.24200439453125 406.0
480.26251220703125 238.0
481.2502136230469 1168.0
482.2451171875 204.0
484.2689208984375 169.0
486.2783508300781 4961.0
488.2268371582031 266.0
492.2600402832031 214.0
493.25689697265625 646.0
494.25164794921875 480.0
495.2505187988281 1613.0
496.2566833496094 1410.0
498.2782897949219 325.0
506.2447509765625 909.0
508.25177001953125 723.0
509.2235412597656 241.0
510.27862548828125 106830.0
512.2968139648438 5338.0
516.2526245117188 364.0
519.2222900390625 219.0
520.2716674804688 504.0
521.2612915039062 210.0
523.2432250976562 184.0
524.2774047851562 222.0
527.23779296875 4168.0
528.2694702148438 372.0
534.2373046875 321.0
536.2567749023438 248.0
538.2734985351562 2977.0
539.2865600585938 337.0
541.250244140625 504.0
542.239990234375 219.0
544.2941284179688 190.0
548.2531127929688 2282.0
550.2692260742188 169.0
554.2531127929688 236.0
556.2802734375 1126.0
563.2427978515625 229.0
564.3157348632812 186.0
566.2643432617188 13008.0
567.2465209960938 588.0
568.2430419921875 278.0
570.30224609375 369.0
576.306884765625 3051.0
580.2857055664062 2770.0
588.3117065429688 3836.0
595.276123046875 276.0
596.28662109375 356.0
597.2808227539062 613.0
598.2930297851562 33690.0
599.2991943359375 523.0
600.3062133789062 216.0
602.31591796875 209.0
604.28759765625 338.0
608.2786254882812 1390.0
610.2981567382812 269.0
612.3106079101562 419.0
616.3001708984375 1072.0
617.3493041992188 56325.0
618.3050537109375 357.0
619.3558349609375 580.0
626.2938842773438 33943.0
630.318115234375 363.0
631.35791015625 332.0
636.3077392578125 4880.0
637.2816162109375 216.0
640.30712890625 793.0
641.3480224609375 286.0
648.3292236328125 23995.0
654.3426513671875 176.0
656.3041381835938 651.0
658.3189697265625 113691.0
659.3743896484375 1428.0
669.3360595703125 645.0
670.3130493164062 451.0
677.369384765625 831.0
678.308349609375 272.0
687.3624877929688 5905.0
690.3533325195312 313.0
696.3247680664062 13992.0
701.3702392578125 8646.0
702.3480224609375 490.0
708.3299560546875 197.0
719.38720703125 78488.0
729.354736328125 669.0
737.3964233398438 763.0
747.3916015625 434.0
761.3948364257812 12716.0
778.4580078125 153.0
779.4058837890625 1058118.0
781.04443359375 2730.0
781.169921875 1452.0
781.5111694335938 806.0
781.6641845703125 257.0

Name: Vinorelbine ditartrate
Precursor_mz: 801.3786421
Cas: 125317-39-7
Adduct: [M+Na]+
Mz: 801.3833854
Comment: Major
Smiles: CCC1=C[C@@H]2CN(C1)Cc1c([nH]c3ccccc13)[C@@](C(=O)OC)(c1cc3c(cc1OC)N(C)[C@H]1[C@@](O)(C(=O)OC)[C@H](OC(C)=O)[C@]4(CC)C=CCN5CC[C@]31[C@@H]54)C2
Formula: C45H54N4O8
Mix: Alkaloids-pos-mix13
Rt: [3.36]
Rt_apex: 3.36110101
Rt_start: 3.265883333
Rt_end: 3.542533333
Ms1_intensity: 50299
N_scnas: 41
Ms1_scan_range: [791, 805, 833]
Reci_snr: 0.001070736
Ms2_scan_idx: 1644
Pmz_offset: 0.001184237
Entropy: 1.0
Num Peaks: 28
122.09777069091797 1121.0
214.08331298828125 209.0
258.1083679199219 483.0
357.15887451171875 246.0
358.1700439453125 182.0
379.2048645019531 243.0
389.1814880371094 281.0
390.192626953125 179.0
500.22552490234375 177.0
510.27227783203125 1384.0
511.2808837890625 419.0
532.2474975585938 192.0
549.2853393554688 407.0
588.24365234375 202.0
599.2991943359375 230.0
617.3597412109375 1218.0
619.2685546875 177.0
620.2747192382812 167.0
639.3345336914062 357.0
653.3342895507812 201.0
681.3380737304688 201.0
709.3350219726562 220.0
712.3283081054688 261.0
719.3796997070312 225.0
720.3850708007812 313.0
723.3486328125 194.0
741.3612060546875 1900.0
801.38916015625 16605.0

Name: Vinorelbine
Precursor_mz: 779.4014892
Cas: 71486-22-1
Adduct: [M+H]+
Mz: 779.4014412
Comment: Major
Smiles: CCC1=C[C@@H]2C[N@](C1)Cc1c([nH]c3ccccc13)[C@@](C(=O)OC)(c1cc3c(cc1OC)N(C)[C@H]1[C@@](O)(C(=O)OC)[C@H](OC(C)=O)[C@]4(CC)C=CCN5CC[C@]31[C@@H]54)C2
Formula: C45H54N4O8
Mix: Alkaloids-pos-mix13
Rt: [3.36]
Rt_apex: 3.358721117
Rt_start: 3.17705
Rt_end: 5.208666667
Ms1_intensity: 4777897
N_scnas: 408
Ms1_scan_range: [777, 805, 1186]
Reci_snr: 0.0020789
Ms2_scan_idx: 1642
Pmz_offset: 0.000755276
Entropy: 0.9483715295791626
Num Peaks: 311
77.03523254394531 309.0
80.0511245727539 235.0
84.08087158203125 1037.0
91.0540542602539 348.0
92.0490493774414 229.0
93.05621337890625 786.0
94.06478118896484 460.0
95.0842514038086 393.0
98.09639739990234 874.0
105.07134246826172 308.0
106.0662612915039 810.0
107.0731201171875 1436.0
108.08036041259766 1703.0
110.09574127197266 2302.0
119.03446960449219 205.0
120.07943725585938 199.0
121.0872802734375 2057.0
122.09622192382812 109106.0
124.1094741821289 1165.0
130.06390380859375 623.0
133.0642852783203 607.0
134.09747314453125 472.0
135.10693359375 399.0
136.11033630371094 2173.0
140.06809997558594 238.0
144.07752990722656 1231.0
154.06195068359375 742.0
156.08038330078125 308.0
158.10137939453125 478.0
160.07142639160156 187.0
162.08941650390625 840.0
164.1056671142578 427.0
167.06723022460938 2749.0
168.0809326171875 350.0
170.09188842773438 330.0
172.11480712890625 195.0
174.0885772705078 429.0
176.11270141601562 208.0
179.0581512451172 223.0
180.0830535888672 436.0
181.09010314941406 273.0
182.0583038330078 484.0
186.09091186523438 268.0
187.0992431640625 293.0
188.10646057128906 5817.0
192.10203552246094 1230.0
193.08750915527344 526.0
194.08135986328125 877.0
196.11209106445312 559.0
198.09609985351562 701.0
200.10797119140625 2003.0
202.08412170410156 1635.0
204.1000518798828 275.0
206.11793518066406 241.0
207.0881805419922 327.0
208.07284545898438 169.0
210.12242126464844 353.0
212.10845947265625 583.0
214.08535766601562 16151.0
215.11326599121094 273.0
216.10443115234375 442.0
222.11184692382812 6613.0
224.12840270996094 7404.0
226.1519775390625 383.0
228.099853515625 500.0
230.11781311035156 356.0
232.09548950195312 474.0
234.1288604736328 383.0
236.1344451904297 279.0
237.14044189453125 302.0
238.1442413330078 539.0
239.15451049804688 446.0
240.10166931152344 10296.0
242.11297607421875 343.0
246.12109375 1043.0
247.14151000976562 508.0
248.130859375 199.0
249.1421356201172 236.0
250.1243896484375 191.0
251.15528869628906 504.0
252.10137939453125 640.0
258.1128845214844 14655.0
260.1256408691406 4674.0
261.1429138183594 804.0
262.1212463378906 589.0
263.15606689453125 4343.0
264.16326904296875 257.0
265.12896728515625 190.0
272.13262939453125 2149.0
273.1429138183594 379.0
274.1295471191406 424.0
275.13653564453125 414.0
278.1475830078125 212.0
280.1288146972656 621.0
282.1241455078125 259.0
284.121826171875 297.0
287.1434631347656 745.0
289.13494873046875 417.0
290.1499938964844 194.0
291.1524658203125 15098.0
292.166259765625 257.0
293.1673889160156 228.0
294.1509704589844 964.0
295.1868591308594 450.0
296.1303405761719 309.0
297.1455078125 224.0
298.1527099609375 276.0
299.1106262207031 276.0
300.1163024902344 179.0
302.1424255371094 354.0
304.16314697265625 571.0
305.1674499511719 261.0
306.1537780761719 761.0
307.1834716796875 887.0
309.1962890625 253.0
312.162109375 179.0
314.1463317871094 270.0
315.14703369140625 291.0
317.1582336425781 231.0
319.1808166503906 1988.0
320.1593933105469 197.0
321.1595458984375 1640.0
322.1688537597656 267.0
323.17718505859375 71683.0
325.1328125 736.0
326.13311767578125 198.0
327.1527404785156 549.0
328.1662902832031 261.0
329.1636047363281 1662.0
330.1752014160156 247.0
331.1806640625 723.0
332.1595153808594 249.0
333.1910705566406 227.0
335.1792907714844 366.0
337.1991882324219 282.0
339.1424560546875 188.0
341.16387939453125 356.0
342.14178466796875 225.0
343.1835021972656 969.0
345.1569519042969 391.0
347.1778869628906 4985.0
349.1916198730469 720.0
350.17572021484375 304.0
351.1795959472656 233.0
353.1864318847656 417.0
355.13812255859375 782.0
356.1596984863281 441.0
357.1615295410156 18853.0
358.16473388671875 218.0
359.1746826171875 1002.0
360.15142822265625 173.0
361.1321716308594 219.0
362.1783447265625 334.0
363.17523193359375 491.0
364.1841735839844 338.0
365.1891784667969 1138.0
366.1955261230469 355.0
367.1979064941406 1118.0
369.1582336425781 189.0
371.1697692871094 211.0
373.1650390625 243.0
374.1769104003906 423.0
375.1820068359375 557.0
377.1825866699219 1481.0
379.2048645019531 26228.0
381.2270812988281 2101.0
384.1673583984375 234.0
385.1609802246094 360.0
386.1861877441406 1957.0
387.1796569824219 886.0
388.18267822265625 781.0
389.18701171875 24996.0
391.19677734375 319.0
393.2200927734375 327.0
395.17327880859375 514.0
396.2005615234375 185.0
397.2095947265625 4973.0
401.1799011230469 674.0
403.2119140625 2002.0
407.2007141113281 1578.0
409.2109680175781 845.0
413.1807556152344 234.0
415.1828308105469 213.0
417.1840515136719 341.0
418.2165832519531 236.0
419.2130126953125 342.0
421.2267761230469 311.0
424.2159729003906 179.0
425.2021789550781 344.0
427.2012634277344 2905.0
429.2224426269531 168.0
431.2017822265625 202.0
433.2265625 331.0
435.2063293457031 363.0
436.2403869628906 248.0
438.17120361328125 414.0
439.2293701171875 596.0
446.2541809082031 318.0
448.24859619140625 220.0
449.20880126953125 679.0
450.25640869140625 2341.0
451.17999267578125 460.0
452.26568603515625 310.0
453.2122497558594 211.0
454.2525329589844 402.0
455.2191467285156 303.0
456.23175048828125 241.0
457.2364807128906 54619.0
459.20111083984375 313.0
461.22723388671875 359.0
463.2215576171875 207.0
464.2279052734375 857.0
467.2200927734375 5136.0
468.26416015625 198.0
469.2364501953125 21365.0
476.2359924316406 272.0
478.24713134765625 4737.0
479.24200439453125 406.0
480.26251220703125 238.0
481.2502136230469 1168.0
482.2451171875 204.0
484.2689208984375 169.0
486.2783508300781 4961.0
488.2268371582031 266.0
492.2600402832031 214.0
493.25689697265625 646.0
494.25164794921875 480.0
495.2505187988281 1613.0
496.2566833496094 1410.0
498.2782897949219 325.0
506.2447509765625 909.0
508.25177001953125 723.0
509.2235412597656 241.0
510.27862548828125 106830.0
512.2968139648438 5338.0
516.2526245117188 364.0
519.2222900390625 219.0
520.2716674804688 504.0
521.2612915039062 210.0
523.2432250976562 184.0
524.2774047851562 222.0
527.23779296875 4168.0
528.2694702148438 372.0
534.2373046875 321.0
536.2567749023438 248.0
538.2734985351562 2977.0
539.2865600585938 337.0
541.250244140625 504.0
542.239990234375 219.0
544.2941284179688 190.0
548.2531127929688 2282.0
550.2692260742188 169.0
554.2531127929688 236.0
556.2802734375 1126.0
563.2427978515625 229.0
564.3157348632812 186.0
566.2643432617188 13008.0
567.2465209960938 588.0
568.2430419921875 278.0
570.30224609375 369.0
576.306884765625 3051.0
580.2857055664062 2770.0
588.3117065429688 3836.0
595.276123046875 276.0
596.28662109375 356.0
597.2808227539062 613.0
598.2930297851562 33690.0
599.2991943359375 523.0
600.3062133789062 216.0
602.31591796875 209.0
604.28759765625 338.0
608.2786254882812 1390.0
610.2981567382812 269.0
612.3106079101562 419.0
616.3001708984375 1072.0
617.3493041992188 56325.0
618.3050537109375 357.0
619.3558349609375 580.0
626.2938842773438 33943.0
630.318115234375 363.0
631.35791015625 332.0
636.3077392578125 4880.0
637.2816162109375 216.0
640.30712890625 793.0
641.3480224609375 286.0
648.3292236328125 23995.0
654.3426513671875 176.0
656.3041381835938 651.0
658.3189697265625 113691.0
659.3743896484375 1428.0
669.3360595703125 645.0
670.3130493164062 451.0
677.369384765625 831.0
678.308349609375 272.0
687.3624877929688 5905.0
690.3533325195312 313.0
696.3247680664062 13992.0
701.3702392578125 8646.0
702.3480224609375 490.0
708.3299560546875 197.0
719.38720703125 78488.0
729.354736328125 669.0
737.3964233398438 763.0
747.3916015625 434.0
761.3948364257812 12716.0
778.4580078125 153.0
779.4058837890625 1058118.0
781.04443359375 2730.0
781.169921875 1452.0
781.5111694335938 806.0
781.6641845703125 257.0

Name: Vinorelbine
Precursor_mz: 801.3786421
Cas: 71486-22-1
Adduct: [M+Na]+
Mz: 801.3833854
Comment: Major
Smiles: CCC1=C[C@@H]2C[N@](C1)Cc1c([nH]c3ccccc13)[C@@](C(=O)OC)(c1cc3c(cc1OC)N(C)[C@H]1[C@@](O)(C(=O)OC)[C@H](OC(C)=O)[C@]4(CC)C=CCN5CC[C@]31[C@@H]54)C2
Formula: C45H54N4O8
Mix: Alkaloids-pos-mix13
Rt: [3.36]
Rt_apex: 3.36110101
Rt_start: 3.265883333
Rt_end: 3.542533333
Ms1_intensity: 50299
N_scnas: 41
Ms1_scan_range: [791, 805, 833]
Reci_snr: 0.001070736
Ms2_scan_idx: 1644
Pmz_offset: 0.001184237
Entropy: 1.0
Num Peaks: 28
122.09777069091797 1121.0
214.08331298828125 209.0
258.1083679199219 483.0
357.15887451171875 246.0
358.1700439453125 182.0
379.2048645019531 243.0
389.1814880371094 281.0
390.192626953125 179.0
500.22552490234375 177.0
510.27227783203125 1384.0
511.2808837890625 419.0
532.2474975585938 192.0
549.2853393554688 407.0
588.24365234375 202.0
599.2991943359375 230.0
617.3597412109375 1218.0
619.2685546875 177.0
620.2747192382812 167.0
639.3345336914062 357.0
653.3342895507812 201.0
681.3380737304688 201.0
709.3350219726562 220.0
712.3283081054688 261.0
719.3796997070312 225.0
720.3850708007812 313.0
723.3486328125 194.0
741.3612060546875 1900.0
801.38916015625 16605.0

Name: Scopine
Precursor_mz: 156.1011971
Cas: 498-45-3
Adduct: [M+H]+
Mz: 156.1019051
Comment: Major
Smiles: CN1[C@H]2C[C@H](O)C[C@@H]1[C@H]1O[C@@H]21
Formula: C8H13NO2
Mix: Alkaloids-pos-mix13
Rt: [0.279]
Rt_apex: 0.279552689
Rt_start: 0.237433333
Rt_end: 0.701316667
Ms1_intensity: 1415477
N_scnas: 122
Ms1_scan_range: [89, 95, 212]
Reci_snr: 8.05e-05
Ms2_scan_idx: 143
Pmz_offset: 0.001301753
Entropy: 1.0
Num Peaks: 44
41.03835678100586 1720.0
42.03413391113281 8428.0
43.018829345703125 1033.0
44.050315856933594 5375.0
45.034671783447266 1472.0
51.02376937866211 327.0
53.03810501098633 540.0
54.03513717651367 201.0
55.054988861083984 1942.0
56.05074691772461 689.0
57.033172607421875 154.0
58.066898345947266 368.0
59.03656768798828 1735.0
65.03789520263672 459.0
67.05652618408203 1290.0
68.04962158203125 2279.0
69.05818176269531 433.0
70.06475830078125 768.0
72.04853820800781 458.0
73.05381774902344 340.0
74.06122589111328 362.0
77.03858947753906 1196.0
78.03334045410156 123.0
79.05318450927734 1007.0
80.05328369140625 692.0
81.03692626953125 557.0
82.06470489501953 980.0
83.05036163330078 1427.0
84.08307647705078 4683.0
86.06085205078125 897.0
93.05580139160156 379.0
94.06571960449219 2178.0
95.07424926757812 512.0
96.04414367675781 567.0
97.05351257324219 1776.0
98.06121063232422 2203.0
108.08133697509766 918.0
109.08890533447266 154.0
110.09671783447266 2622.0
114.05440521240234 224.0
115.06378173828125 513.0
120.0804443359375 425.0
138.09141540527344 1684.0
156.1024932861328 10679.0

Name: Halofuginone hydrobromide
Precursor_mz: 414.021742
Cas: 64924-67-0
Adduct: [M+H]+
Mz: 414.0214582
Comment: Major
Smiles: O=C(C[C@@H]1NCCC[C@H]1O)Cn1cnc2cc(Br)c(Cl)cc2c1=O
Formula: C16H17BrClN3O3
Mix: Alkaloids-pos-mix13
Rt: [2.753]
Rt_apex: 2.752871571
Rt_start: 2.660766667
Rt_end: 2.81275
Ms1_intensity: 1464641
N_scnas: 22
Ms1_scan_range: [698, 712, 721]
Reci_snr: 8.94e-05
Ms2_scan_idx: 1198
Pmz_offset: 0.001388939
Entropy: 0.9986247420310974
Num Peaks: 44
43.01804733276367 289.0
53.04031753540039 92.0
54.03427505493164 92.0
55.05203628540039 376.0
65.04149627685547 650.0
67.04639434814453 1260.0
71.04927062988281 297.0
72.04519653320312 385.0
77.0400619506836 946.0
79.05467987060547 282.0
80.04850769042969 1480.0
81.07382202148438 364.0
82.0649642944336 7817.0
91.0552749633789 1657.0
92.05162048339844 217.0
93.06963348388672 1194.0
94.06465911865234 268.0
95.04991912841797 5477.0
96.08020782470703 991.0
97.02893829345703 539.0
98.09487915039062 214.0
100.07710266113281 153544.0
103.05413055419922 321.0
108.08168029785156 335.0
109.0672607421875 564.0
110.0970687866211 7923.0
118.06710052490234 587.0
119.0756607055664 430.0
120.08235931396484 62853.0
121.06704711914062 29822.0
123.0671615600586 396.0
136.0741424560547 253.0
138.0918426513672 37071.0
139.078125 1178.0
156.1029815673828 859.0
240.91751098632812 1984.0
241.89871215820312 579.0
258.9316101074219 4351.0
270.9320983886719 2167.0
298.9258117675781 819.0
314.9598083496094 1150.0
378.0056457519531 764.0
396.01568603515625 5061.0
414.0278625488281 11069.0

Name: Gramine
Precursor_mz: 175.121074
Cas: 87-52-5
Adduct: [M+H]+
Mz: 175.1229749
Comment: Major
Smiles: CN(C)Cc1c[nH]c2ccccc12
Formula: C11H14N2
Mix: Alkaloids-pos-mix13
Rt: [1.671, 3.057]
Rt_apex: 1.668230283
Rt_start: 1.63145
Rt_end: 1.825
Ms1_intensity: 45067
N_scnas: 37
Ms1_scan_range: [507, 514, 545]
Reci_snr: 0.004965289
Ms2_scan_idx: 697
Pmz_offset: 0.000666916
Entropy: 0.992455244064331
Num Peaks: 15
46.065101623535156 1709.0
50.016292572021484 111.0
51.02172088623047 1445.0
53.0411262512207 51.0
75.023193359375 51.0
77.03852844238281 13209.0
95.05091094970703 235.0
101.03645324707031 173.0
102.04330444335938 922.0
103.05371856689453 9929.0
104.049072265625 115.0
105.04346466064453 137.0
128.0496826171875 1666.0
129.05686950683594 86.0
130.0648193359375 40155.0

Name: Lappaconitine hydrobromide
Precursor_mz: 585.3168547
Cas: 97792-45-5
Adduct: [M+H]+
Mz: 585.3170428
Comment: Major
Smiles: CCN1C[C@]2(OC(=O)c3ccccc3NC(C)=O)CC[C@H](OC)[C@]34C1[C@H](C[C@H]23)[C@@]1(O)C[C@H](OC)[C@H]2C[C@@H]4[C@]1(O)[C@H]2OC
Formula: C32H44N2O8
Mix: Alkaloids-pos-mix13
Rt: [2.786]
Rt_apex: 2.787591608
Rt_start: 2.707916667
Rt_end: 3.38055
Ms1_intensity: 13116475
N_scnas: 102
Ms1_scan_range: [705, 717, 808]
Reci_snr: 7.58e-05
Ms2_scan_idx: 1251
Pmz_offset: 0.002800979
Entropy: 0.9498522281646729
Num Peaks: 304
41.036685943603516 280.0
43.01896667480469 439.0
44.04859161376953 615.0
45.032928466796875 240.0
46.0643310546875 795.0
55.016639709472656 218.0
56.04882049560547 746.0
58.067081451416016 3561.0
59.04645538330078 278.0
67.05328369140625 385.0
71.04808807373047 2259.0
72.08212280273438 516.0
75.04536437988281 2584.0
77.03882598876953 470.0
79.05218505859375 818.0
81.03338623046875 385.0
82.0649642944336 207.0
83.0493392944336 464.0
84.08076477050781 5009.0
85.06288146972656 552.0
87.04161071777344 485.0
88.07770538330078 2991.0
89.03779602050781 237.0
91.05393981933594 2784.0
92.04757690429688 711.0
93.06692504882812 588.0
94.06192779541016 310.0
95.04854583740234 601.0
96.0843276977539 310.0
97.0621109008789 824.0
98.09626770019531 805.0
99.04230499267578 203.0
101.05941772460938 1480.0
102.09191131591797 201.0
103.05270385742188 259.0
105.06832885742188 1481.0
107.04684448242188 1070.0
108.08168029785156 1333.0
109.06139373779297 1246.0
110.0941162109375 403.0
111.04740142822266 462.0
113.05729675292969 942.0
114.09223175048828 378.0
115.05059051513672 1106.0
116.05982208251953 302.0
117.07041931152344 2541.0
119.08638000488281 1081.0
120.04391479492188 12466.0
121.06858825683594 1145.0
122.09451293945312 910.0
123.05003356933594 652.0
124.10931396484375 207.0
125.05854797363281 1065.0
127.05168151855469 428.0
128.05970764160156 2013.0
129.06854248046875 9952.0
130.06692504882812 263.0
131.08522033691406 7629.0
132.07846069335938 173.0
133.10134887695312 979.0
134.0989227294922 717.0
135.08065795898438 784.0
136.11508178710938 192.0
137.0630645751953 1804.0
138.05886840820312 878.0
139.0797882080078 241.0
140.1077880859375 223.0
141.06622314453125 2292.0
142.08145141601562 962.0
143.085205078125 2822.0
144.0436553955078 1775.0
145.09825134277344 1084.0
146.09564208984375 739.0
147.08111572265625 716.0
148.1108856201172 1534.0
149.06199645996094 285.0
151.07339477539062 469.0
152.0581817626953 350.0
153.06700134277344 1245.0
154.07742309570312 594.0
155.08592224121094 6271.0
156.0906982421875 671.0
157.10047912597656 10348.0
158.09410095214844 1112.0
159.1156463623047 2859.0
160.112060546875 971.0
161.0973358154297 3312.0
162.05526733398438 115701.0
163.0733642578125 292.0
164.10545349121094 173.0
165.07046508789062 1733.0
166.07627868652344 415.0
167.08334350585938 4544.0
168.08616638183594 311.0
169.0992889404297 2940.0
170.09532165527344 528.0
171.08143615722656 1242.0
172.11273193359375 1206.0
173.09544372558594 1160.0
174.1309356689453 4081.0
175.1342315673828 590.0
176.06777954101562 480.0
177.09156799316406 221.0
178.07899475097656 2008.0
179.08795166015625 3584.0
180.09222412109375 1164.0
181.1011962890625 4156.0
182.0997314453125 936.0
183.11619567871094 1145.0
184.11073303222656 930.0
185.09841918945312 1558.0
186.1289520263672 1125.0
187.11244201660156 1561.0
188.14663696289062 322.0
189.0852508544922 478.0
190.07843017578125 913.0
191.08779907226562 3097.0
192.09400939941406 765.0
193.10479736328125 7770.0
194.10064697265625 584.0
195.11866760253906 4535.0
196.10986328125 1379.0
197.09568786621094 1796.0
198.12942504882812 2323.0
199.11041259765625 1616.0
200.1394805908203 1005.0
201.0935821533203 404.0
202.1536865234375 801.0
203.08656311035156 1907.0
204.09176635742188 4833.0
205.10345458984375 3622.0
206.11363220214844 2049.0
207.11819458007812 4509.0
208.1110382080078 553.0
209.13465881347656 4762.0
210.1282501220703 18672.0
211.1241912841797 2483.0
212.14292907714844 12403.0
213.1497802734375 1618.0
214.15899658203125 561.0
215.1109161376953 679.0
216.09176635742188 420.0
217.1017303466797 1025.0
218.1016082763672 762.0
219.1183319091797 26388.0
220.1290740966797 651.0
221.13380432128906 5449.0
222.12619018554688 915.0
223.114501953125 3952.0
224.142822265625 836.0
225.12718200683594 2581.0
226.12635803222656 341.0
227.10870361328125 2005.0
228.13983154296875 617.0
229.1053009033203 2441.0
230.15370178222656 272.0
231.11915588378906 1460.0
232.09091186523438 873.0
233.12469482421875 763.0
234.11996459960938 465.0
235.11521911621094 2952.0
236.13844299316406 1416.0
237.12716674804688 11082.0
238.15692138671875 1039.0
239.14117431640625 1967.0
240.14266967773438 484.0
241.15716552734375 834.0
242.15196228027344 1905.0
243.1466064453125 334.0
244.16522216796875 695.0
245.12005615234375 387.0
246.1251678466797 705.0
247.1147003173828 13346.0
248.14158630371094 1789.0
249.1262969970703 4388.0
250.1573486328125 1647.0
251.14382934570312 14856.0
252.17681884765625 634.0
253.1226043701172 2045.0
254.16188049316406 294.0
255.14276123046875 1113.0
256.1637268066406 279.0
257.1596984863281 205.0
258.1846923828125 460.0
259.13262939453125 2339.0
260.15020751953125 282.0
261.12896728515625 2070.0
262.1572570800781 750.0
263.14434814453125 2079.0
264.17431640625 4399.0
265.1308898925781 4231.0
266.1601867675781 1976.0
267.1432800292969 1555.0
268.1672668457031 572.0
269.1517639160156 3663.0
270.1864929199219 1601.0
271.1377258300781 983.0
273.15185546875 186.0
274.1617126464844 3315.0
275.16644287109375 381.0
276.1846923828125 216.0
277.1417236328125 499.0
278.1448669433594 447.0
279.1404724121094 28458.0
280.17071533203125 6729.0
281.1534729003906 4665.0
282.1827087402344 893.0
283.16424560546875 1985.0
284.16876220703125 670.0
285.1513671875 600.0
286.185546875 233.0
287.17401123046875 373.0
289.1512756347656 213.0
290.1591796875 195.0
291.1568603515625 469.0
292.1706848144531 25432.0
293.1549987792969 810.0
294.1891174316406 584.0
295.1599426269531 2988.0
296.204833984375 5233.0
297.14996337890625 7341.0
298.181396484375 6729.0
299.1612243652344 734.0
301.1865539550781 486.0
302.1786193847656 420.0
303.16497802734375 385.0
306.187744140625 5601.0
308.20220947265625 324.0
309.1785888671875 788.0
310.1861877441406 1609.0
311.168212890625 11965.0
312.20135498046875 1254.0
313.1790771484375 1456.0
314.1782531738281 594.0
315.19146728515625 419.0
316.19384765625 1781.0
317.17779541015625 400.0
323.20452880859375 440.0
324.1993103027344 157102.0
325.165283203125 408.0
326.2062072753906 358.0
327.185302734375 1604.0
328.2192687988281 2229.0
329.1733703613281 3739.0
330.2079162597656 7348.0
331.1878967285156 200.0
338.2174072265625 5081.0
342.20623779296875 12239.0
343.19085693359375 2750.0
346.2080078125 1482.0
348.21368408203125 196.0
353.1754150390625 240.0
354.2099914550781 270.0
355.135009765625 517.0
356.2254333496094 174013.0
358.2386474609375 218.0
360.2468566894531 451.0
361.2010498046875 1016.0
370.2370910644531 2730.0
373.0696716308594 193.0
374.23614501953125 55105.0
384.1585998535156 179.0
387.0604248046875 313.0
388.2513122558594 118758.0
392.2378234863281 1497.0
404.99713134765625 185.0
406.2605285644531 81289.0
421.2146911621094 339.0
424.2732238769531 19560.0
429.2218933105469 341.0
443.2378234863281 514.0
453.211669921875 252.0
458.20263671875 717.0
459.24560546875 174.0
461.250732421875 572.0
471.2351989746094 1034.0
475.2711486816406 1029.0
477.24652099609375 184.0
485.2415466308594 812.0
490.2344970703125 258.0
493.2655944824219 315.0
503.25830078125 20982.0
507.28662109375 4025.0
517.2791748046875 2428.0
521.2637939453125 480.0
535.2847900390625 133856.0
553.2913818359375 6373.0
567.309326171875 160307.0
584.9017944335938 153.0
585.3261108398438 1000189.0
586.58642578125 4360.0
586.7462158203125 6479.0
587.1405639648438 1420.0
587.276611328125 398.0
587.3956298828125 204.0
587.6439819335938 245.0
587.783447265625 217.0
587.9161376953125 194.0
588.0420532226562 175.0
588.287109375 172.0
588.5662841796875 201.0
588.9407958984375 153.0
589.19970703125 165.0
589.5949096679688 177.0

Name: Lappaconitine hydrobromide
Precursor_mz: 607.2968069
Cas: 97792-45-5
Adduct: [M+Na]+
Mz: 607.2989871
Comment: Major
Smiles: CCN1C[C@]2(OC(=O)c3ccccc3NC(C)=O)CC[C@H](OC)[C@]34C1[C@H](C[C@H]23)[C@@]1(O)C[C@H](OC)[C@H]2C[C@@H]4[C@]1(O)[C@H]2OC
Formula: C32H44N2O8
Mix: Alkaloids-pos-mix13
Rt: [2.786]
Rt_apex: 2.770151609
Rt_start: 2.741083333
Rt_end: 2.950066667
Ms1_intensity: 42745
N_scnas: 31
Ms1_scan_range: [710, 714, 742]
Reci_snr: 0.004166035
Ms2_scan_idx: 1253
Pmz_offset: 0.001921904
Entropy: 1.0
Num Peaks: 9
162.0516815185547 402.0
324.1968078613281 178.0
325.2032470703125 192.0
356.21484375 364.0
357.22735595703125 241.0
374.2334289550781 379.0
388.2513122558594 3987.0
406.26336669921875 3957.0
607.2987060546875 1651.0

Name: Phellodendrine chloride
Precursor_mz: 342.1696823
Cas: 104112-82-5
Adduct: [M]+
Mz: 342.1699847
Comment: Major
Smiles: COc1cc2c(cc1O)C[C@H]1c3cc(O)c(OC)cc3CC[N+]1(C)C2
Formula: C20H24NO4+
Mix: Alkaloids-pos-mix13
Rt: [1.954]
Rt_apex: 1.946464396
Rt_start: 1.884066667
Rt_end: 2.547166667
Ms1_intensity: 2886644
N_scnas: 119
Ms1_scan_range: [561, 574, 681]
Reci_snr: 0.000118937
Ms2_scan_idx: 800
Pmz_offset: 0.000933294
Entropy: 0.8947615623474121
Num Peaks: 45
42.0341682434082 1338.0
79.05699920654297 187.0
81.0584716796875 188.0
91.0550765991211 356.0
94.06307983398438 92.0
103.0553207397461 303.0
105.06953430175781 353.0
106.0615463256836 355.0
107.05095672607422 343.0
108.05517578125 204.0
119.05088806152344 366.0
120.08055114746094 1635.0
121.0853042602539 466.0
130.06182861328125 342.0
131.07046508789062 527.0
132.08299255371094 778.0
133.05247497558594 1606.0
134.0644989013672 505.0
136.05091857910156 315.0
143.0496368408203 258.0
147.06546020507812 625.0
148.07469177246094 31893.0
149.0839385986328 39338.0
150.08975219726562 375.0
151.07650756835938 2649.0
160.0744171142578 899.0
162.05133056640625 172.0
163.07479858398438 358.0
164.1068878173828 617.0
175.0632781982422 901.0
176.06924438476562 4668.0
177.07997131347656 578344.0
178.0823516845703 594.0
190.08767700195312 6461.0
191.09512329101562 498.0
192.10330200195312 1244791.0
193.14532470703125 614.0
194.1002197265625 201.0
195.18096923828125 92.0
219.086669921875 217.0
251.09878540039062 92.0
279.0999755859375 215.0
326.1446228027344 316.0
327.1490173339844 361.0
342.17431640625 54803.0

Name: Epigoitrin
Precursor_mz: 130.0312025
Cas: 1072-93-1
Adduct: [M+H]+
Mz: 130.0321115
Comment: Major
Smiles: C=C[C@@H]1CNC(=S)O1
Formula: C5H7NOS
Mix: Alkaloids-pos-mix13
Rt: [1.344]
Rt_apex: 1.34404168
Rt_start: 1.30255
Rt_end: 1.393033333
Ms1_intensity: 26489
N_scnas: 16
Ms1_scan_range: [420, 426, 437]
Reci_snr: 0.067389574
Ms2_scan_idx: 555
Pmz_offset: 0.000112116
Entropy: 0.9959121942520142
Num Peaks: 14
40.01634216308594 10.0
41.03836441040039 1747.0
42.03322982788086 364.0
43.05290222167969 1445.0
44.04939651489258 190.0
44.97819519042969 200.0
53.03913879394531 399.0
54.03205490112305 94.0
55.059165954589844 10.0
58.99453353881836 31.0
59.98927307128906 138.0
60.973697662353516 2827.0
68.04963684082031 168.0
70.06478118896484 1228.0

Name: Hydroprotopine
Precursor_mz: 354.1347086
Cas: 128397-41-1
Adduct: [M]+
Mz: 354.1335992
Comment: Major
Smiles: C[N+]12CCc3cc4c(cc3C1(O)Cc1ccc3c(c1C2)OCO3)OCO4
Formula: C20H20NO5+
Mix: Alkaloids-pos-mix13
Rt: [2.542]
Rt_apex: 2.538567189
Rt_start: 2.4178
Rt_end: 2.79975
Ms1_intensity: 4521462
N_scnas: 61
Ms1_scan_range: [657, 679, 719]
Reci_snr: 0.000599357
Ms2_scan_idx: 1055
Pmz_offset: 0.002609346
Entropy: 0.9925483465194702
Num Peaks: 186
42.03335952758789 584.0
43.01804733276367 142.0
44.05045700073242 13010.0
51.02293014526367 135.0
55.01872634887695 347.0
56.04987716674805 121.0
58.066017150878906 1398.0
65.04036712646484 504.0
77.03883361816406 3877.0
79.0546875 3752.0
81.06877136230469 458.0
89.03913116455078 1474.0
91.05394744873047 28441.0
93.07099151611328 814.0
94.03880310058594 328.0
95.04718780517578 203.0
101.03968048095703 153.0
102.04513549804688 783.0
103.0527114868164 3498.0
104.0623779296875 236.0
105.0352554321289 432.0
107.04975891113281 19182.0
109.06726837158203 1710.0
115.0536117553711 1317.0
116.0522689819336 382.0
117.032470703125 667.0
118.06558227539062 2238.0
119.04963684082031 24686.0
120.0808334350586 1008.0
121.06550598144531 654.0
127.05485534667969 121.0
128.05178833007812 253.0
130.06533813476562 7678.0
131.0723876953125 11764.0
132.08331298828125 3287.0
133.05764770507812 193.0
135.04478454589844 34760.0
136.0496063232422 344.0
137.05979919433594 498.0
139.0549774169922 152.0
142.06472778320312 222.0
143.05332946777344 813.0
144.08241271972656 969.0
145.05093383789062 288.0
146.06002807617188 2638.0
147.04537963867188 16429.0
148.07675170898438 892.0
149.06201171875 162957.0
150.047119140625 176.0
151.05615234375 930.0
152.06338500976562 2382.0
153.06875610351562 795.0
157.0319061279297 131.0
158.0641326904297 1000.0
159.06787109375 26888.0
160.07833862304688 12722.0
161.0617218017578 2818.0
162.06063842773438 214.0
163.03933715820312 9386.0
164.06053161621094 531.0
165.057861328125 39273.0
166.07810974121094 544.0
167.08697509765625 10496.0
169.06463623046875 102.0
170.06788635253906 99.0
171.04656982421875 154.0
172.05567932128906 423.0
173.0603790283203 2474.0
174.05503845214844 6496.0
175.03955078125 15018.0
176.0696563720703 6106.0
177.07664489746094 12349.0
178.0846405029297 10947.0
179.08609008789062 15935.0
180.0602264404297 215.0
181.06344604492188 1023.0
182.0713348388672 94.0
185.058349609375 280.0
186.05430603027344 588.0
187.04335021972656 2191.0
188.0715789794922 644162.0
189.0794677734375 514628.0
190.08811950683594 10505.0
191.0878143310547 3565.0
192.10374450683594 1708.0
193.06776428222656 1317.0
194.07525634765625 321.0
195.08143615722656 22028.0
199.06884765625 88.0
200.07200622558594 467.0
201.07369995117188 1363.0
202.08786010742188 795.0
203.0825958251953 472.0
204.06771850585938 3726.0
205.06529235839844 7650.0
206.0834197998047 66048.0
207.08387756347656 26190.0
208.05032348632812 190.0
209.06365966796875 17782.0
210.06724548339844 348.0
211.0752716064453 538.0
214.08509826660156 92.0
217.06866455078125 25917.0
218.07676696777344 1022.0
219.08096313476562 5624.0
220.11244201660156 497.0
221.060791015625 556.0
222.06973266601562 2305.0
223.07469177246094 8231.0
224.04830932617188 111.0
225.093505859375 5709.0
231.07864379882812 378.0
232.06314086914062 129.0
233.0625762939453 1957.0
234.0706024169922 556.0
235.07650756835938 39662.0
236.07809448242188 396.0
237.0861358642578 9378.0
238.0681610107422 902.0
239.06741333007812 906.0
245.0629425048828 3547.0
246.07015991210938 939.0
247.07943725585938 78380.0
248.1062469482422 1379.0
249.09088134765625 2325.0
250.06637573242188 680.0
251.07713317871094 1675.0
252.0743408203125 147.0
253.08914184570312 5178.0
259.0806884765625 304.0
260.08233642578125 115.0
261.0859069824219 745.0
262.0891418457031 812.0
263.0760803222656 10569.0
264.08538818359375 506.0
265.08978271484375 24479.0
266.0594787597656 1577.0
267.0653076171875 11546.0
269.0804138183594 395.0
273.0567932128906 103.0
274.0920104980469 214.0
275.0733642578125 90809.0
276.1077575683594 1245.0
277.0903625488281 2646.0
278.1191711425781 6017.0
279.0654602050781 1047.0
280.0768127441406 1585.0
281.0876159667969 1032.0
283.1028747558594 2935.0
288.1070251464844 244.0
289.0892639160156 612.0
290.0827331542969 703.0
291.08746337890625 1102.0
292.0795593261719 1911.0
293.0853576660156 15719.0
294.08563232421875 168.0
295.0997009277344 9045.0
296.1324157714844 200.0
297.08709716796875 90.0
304.1064758300781 1137.0
305.083740234375 10519.0
306.1116638183594 5824.0
307.0994873046875 1572.0
308.0741271972656 320.0
311.1014099121094 2573.0
319.0851745605469 207.0
320.0937194824219 16194.0
321.1063537597656 7116.0
322.10546875 116.0
323.0935363769531 10843.0
324.12860107421875 759.0
325.1096496582031 303.0
326.1428527832031 466.0
330.0804443359375 127.0
332.0977478027344 1246.0
334.10833740234375 6520.0
335.1043701171875 141.0
336.1275939941406 33811.0
339.1136169433594 127.0
353.0462341308594 1433.0
354.13873291015625 615821.0
355.23291015625 600.0
355.34930419921875 229.0
355.5556640625 248.0
355.6641845703125 105.0
355.9500732421875 99.0

Name: Dehydrocorydaline nitrate
Precursor_mz: 366.1711501
Cas: 13005-09-9
Adduct: [M]+
Mz: 366.1699847
Comment: Major
Smiles: COc1cc2c(cc1OC)-c1c(C)c3ccc(OC)c(OC)c3c[n+]1CC2
Formula: C22H24NO4+
Mix: Alkaloids-pos-mix14
Rt: [3.083]
Rt_apex: 3.087384171
Rt_start: 3.011166667
Rt_end: 4.190583333
Ms1_intensity: 18142098
N_scnas: 191
Ms1_scan_range: [706, 718, 898]
Reci_snr: 0.000100614
Ms2_scan_idx: 1630
Pmz_offset: 0.002761815
Entropy: 0.9918409585952759
Num Peaks: 112
146.06317138671875 223.0
147.04344177246094 504.0
148.05429077148438 433.0
159.06759643554688 188.0
163.05519104003906 271.0
169.0479278564453 273.0
176.07308959960938 235.0
178.07498168945312 172.0
183.06654357910156 186.0
187.06224060058594 213.0
190.07232666015625 338.0
191.0778045654297 463.0
192.08787536621094 162.0
202.0775604248047 245.0
203.07626342773438 346.0
204.08543395996094 609.0
205.0971221923828 216.0
206.0589141845703 267.0
207.07142639160156 230.0
208.07630920410156 755.0
215.07972717285156 177.0
216.07701110839844 482.0
217.08485412597656 636.0
218.1012725830078 697.0
219.07022094726562 593.0
220.08502197265625 1135.0
221.08131408691406 547.0
222.09030151367188 1517.0
228.08438110351562 215.0
230.1001434326172 724.0
231.099609375 338.0
232.107666015625 793.0
233.08792114257812 1054.0
234.09170532226562 3313.0
235.09764099121094 1851.0
236.069091796875 714.0
244.1122283935547 549.0
245.09552001953125 282.0
246.09178161621094 2521.0
247.10330200195312 10146.0
248.1036376953125 3600.0
249.11485290527344 5208.0
250.09039306640625 3342.0
251.09898376464844 199.0
258.09185791015625 643.0
259.1051330566406 836.0
260.10906982421875 4509.0
261.11724853515625 7456.0
262.09100341796875 2324.0
263.0984191894531 8802.0
264.10321044921875 31602.0
265.1053771972656 477.0
266.1231384277344 1068.0
271.0957336425781 258.0
272.0971374511719 338.0
273.11663818359375 2076.0
274.09393310546875 1345.0
275.1008605957031 3073.0
276.10498046875 11091.0
277.11328125 15308.0
278.11871337890625 48725.0
279.1260070800781 415.0
280.1421203613281 644.0
286.0901794433594 683.0
287.099853515625 591.0
288.101806640625 3680.0
289.1126708984375 28295.0
290.11572265625 18113.0
291.0965881347656 3067.0
292.1006774902344 166002.0
293.111328125 45241.0
294.1453552246094 308.0
302.07330322265625 497.0
303.09613037109375 914.0
304.10113525390625 17011.0
305.1371765136719 54142.0
306.1160888671875 349589.0
307.1260681152344 63028.0
308.1327819824219 451147.0
309.1485595703125 242.0
316.10107421875 947.0
317.1048889160156 649.0
318.1177978515625 63308.0
319.1222839355469 13653.0
320.1007385253906 18097.0
321.1435852050781 44322.0
322.1477966308594 767883.0
323.1485595703125 1098.0
330.0748291015625 476.0
333.0979309082031 3278.0
334.12066650390625 316026.0
335.1192626953125 134912.0
336.1270751953125 426704.0
337.1260986328125 480.0
348.13201904296875 43348.0
350.14324951171875 943441.0
351.14971923828125 544317.0
365.0540771484375 6804.0
366.1811218261719 691124.0
367.2910461425781 3682.0
367.425537109375 451.0
367.6138610839844 900.0
367.72686767578125 345.0
367.83453369140625 183.0
368.0148620605469 303.0
368.1306457519531 175.0
368.5265808105469 174.0
368.7394104003906 224.0
368.95233154296875 153.0
369.1464538574219 234.0
369.6292419433594 153.0
372.59765625 61.0

Name: Nitidine chloride
Precursor_mz: 348.1236742
Cas: 13063-04-2
Adduct: [M]+
Mz: 348.1230345
Comment: Major
Smiles: COc1cc2c[n+](C)c3c4cc5c(cc4ccc3c2cc1OC)OCO5
Formula: C21H18NO4+
Mix: Alkaloids-pos-mix14
Rt: [3.016]
Rt_apex: 3.01265704
Rt_start: 2.9625
Rt_end: 3.082816667
Ms1_intensity: 2193065
N_scnas: 17
Ms1_scan_range: [699, 706, 717]
Reci_snr: 0.000371351
Ms2_scan_idx: 1585
Pmz_offset: 0.001354741
Entropy: 0.9921020865440369
Num Peaks: 84
151.05406188964844 229.0
175.05398559570312 312.0
176.06178283691406 650.0
177.06875610351562 402.0
178.06549072265625 263.0
187.0582733154297 350.0
188.05958557128906 299.0
189.0693817138672 1296.0
190.06639099121094 482.0
191.07960510253906 476.0
200.0615997314453 274.0
201.0632781982422 967.0
202.06146240234375 937.0
203.0701141357422 1236.0
204.08128356933594 4522.0
205.0648193359375 878.0
206.09503173828125 258.0
207.07936096191406 182.0
214.06407165527344 2024.0
215.0713348388672 890.0
216.08303833007812 3112.0
217.08677673339844 6043.0
218.0969696044922 5776.0
219.10330200195312 814.0
220.1160888671875 218.0
227.07437133789062 781.0
228.08209228515625 3331.0
229.0899200439453 1476.0
230.09571838378906 1544.0
231.07171630859375 1168.0
232.0775604248047 40040.0
233.08131408691406 3052.0
234.08938598632812 2579.0
242.05752563476562 1218.0
243.07386779785156 177.0
244.07916259765625 3315.0
245.0865478515625 2123.0
246.09381103515625 42259.0
247.10092163085938 4643.0
248.10787963867188 4273.0
256.0733337402344 667.0
257.0848693847656 862.0
258.09393310546875 1579.0
259.0597839355469 810.0
260.07269287109375 22531.0
261.0807800292969 2867.0
262.08624267578125 10633.0
263.0709228515625 227.0
270.0590515136719 225.0
272.0715026855469 7744.0
273.0816650390625 687.0
274.0890808105469 56181.0
275.09600830078125 69044.0
276.10479736328125 18465.0
277.1130676269531 322.0
286.08758544921875 10758.0
287.09967041015625 21926.0
288.0896911621094 6221.0
289.0718994140625 7013.0
290.0844421386719 133028.0
291.12750244140625 397.0
292.13165283203125 184.0
300.0690612792969 1069.0
301.0714416503906 220.0
302.0804138183594 10946.0
303.0934753417969 37782.0
304.09844970703125 358133.0
305.1100158691406 8024.0
314.08056640625 1182.0
315.0886535644531 3715.0
316.05841064453125 1832.0
317.1046447753906 8318.0
318.0775146484375 78195.0
319.1220703125 189.0
320.1306457519531 631.0
330.0746154785156 6885.0
332.09442138671875 693209.0
333.1028137207031 122686.0
347.0564270019531 2813.0
348.129150390625 805583.0
349.09600830078125 1228.0
349.21661376953125 919.0
349.5287780761719 479.0
349.631103515625 221.0

Name: Aristolactam I
Precursor_mz: 294.0766001
Cas: 13395-02-3
Adduct: [M+H]+
Mz: 294.0760843
Comment: Major
Smiles: COc1cccc2c1cc1c3c(cc4c(c32)OCO4)C(=O)N1
Formula: C17H11NO4
Mix: Alkaloids-pos-mix14
Rt: [4.161]
Rt_apex: 4.156700376
Rt_start: 4.089416667
Rt_end: 5.26415
Ms1_intensity: 741042
N_scnas: 260
Ms1_scan_range: [882, 893, 1143]
Reci_snr: 0.000782074
Ms2_scan_idx: 2228
Pmz_offset: 0.002280731
Entropy: 0.9921356439590454
Num Peaks: 41
137.04135131835938 288.0
138.04531860351562 926.0
139.05294799804688 1345.0
140.0609130859375 2184.0
150.04672241210938 93.0
151.05575561523438 313.0
152.06472778320312 523.0
153.06661987304688 241.0
164.04931640625 915.0
165.05923461914062 1277.0
166.0650177001953 2102.0
167.07566833496094 11416.0
168.05662536621094 2595.0
177.05564880371094 326.0
179.0537109375 251.0
181.0648651123047 154.0
190.06442260742188 429.0
193.05557250976562 15624.0
194.06106567382812 828.0
195.06918334960938 6069.0
196.05239868164062 5496.0
205.05471801757812 213.0
206.05873107910156 362.0
209.06312561035156 949.0
210.09112548828125 249.0
221.05189514160156 14864.0
222.05453491210938 2887.0
223.0636444091797 9338.0
224.04563903808594 1804.0
233.05126953125 255.0
236.07318115234375 513.0
239.0733184814453 1089.0
248.03268432617188 154.0
249.0437469482422 1871.0
250.0524444580078 4749.0
251.06094360351562 133838.0
264.071044921875 947.0
266.083984375 239.0
279.0553894042969 208097.0
293.1639099121094 171.0
294.0801086425781 64147.0

Name: Koumine
Precursor_mz: 307.1804593
Cas: 1358-76-5
Adduct: [M+H]+
Mz: 307.1804898
Comment: Major
Smiles: C=C[C@@]12CN(C)[C@H]3C[C@]14C(=Nc1ccccc14)[C@@H]1C[C@@H]2[C@@H]3CO1
Formula: C20H22N2O
Mix: Alkaloids-pos-mix14
Rt: [2.126]
Rt_apex: 2.126282566
Rt_start: 2.078733333
Rt_end: 2.70835
Ms1_intensity: 4734489
N_scnas: 94
Ms1_scan_range: [566, 573, 661]
Reci_snr: 5.58e-05
Ms2_scan_idx: 928
Pmz_offset: 0.001834216
Entropy: 0.9669760465621948
Num Peaks: 178
41.039241790771484 1516.0
42.03411865234375 4474.0
43.05564498901367 756.0
44.049373626708984 33485.0
51.02375793457031 208.0
53.03911590576172 222.0
57.05754089355469 403.0
58.064754486083984 730.0
65.03675842285156 271.0
67.05307006835938 1578.0
69.03135681152344 279.0
70.06593322753906 29707.0
72.08070373535156 412.0
77.03858947753906 1912.0
79.05567932128906 3172.0
80.04700469970703 1368.0
81.06092834472656 1126.0
82.06470489501953 1612.0
83.07466125488281 294.0
84.08049774169922 1175.0
86.05955505371094 540.0
91.05365753173828 6419.0
92.04998779296875 255.0
93.05715942382812 1033.0
94.06436157226562 11896.0
95.04825592041016 894.0
96.07991027832031 8430.0
98.06260681152344 424.0
100.07398223876953 784.0
103.05523681640625 893.0
104.0491714477539 182.0
105.06945037841797 1604.0
106.06290435791016 906.0
107.07119750976562 1157.0
108.08135223388672 9254.0
110.09526062011719 935.0
115.05476379394531 2593.0
116.06098175048828 629.0
117.070068359375 3969.0
118.06369018554688 1743.0
119.08602142333984 936.0
120.08199310302734 15658.0
121.08829498291016 1127.0
122.09414672851562 2257.0
126.09452056884766 225.0
127.05604553222656 987.0
128.0577392578125 1853.0
129.0697479248047 4963.0
130.06494140625 33758.0
131.07357788085938 1649.0
132.07806396484375 3682.0
133.08799743652344 9162.0
134.09527587890625 7221.0
135.10472106933594 555.0
136.07701110839844 414.0
138.0914306640625 387.0
139.0561981201172 715.0
140.05421447753906 299.0
141.06747436523438 520.0
142.06430053710938 1142.0
143.07470703125 3941.0
144.08197021484375 6327.0
145.06063842773438 727.0
146.09689331054688 3913.0
147.0789794921875 1067.0
148.11216735839844 6233.0
149.11468505859375 203.0
150.0913543701172 455.0
151.05224609375 739.0
152.0612030029297 1805.0
153.06829833984375 1121.0
154.06478881835938 2565.0
155.0732421875 2202.0
156.08148193359375 8602.0
157.08770751953125 754.0
158.0954132080078 2552.0
159.10101318359375 199.0
160.11158752441406 496.0
161.08261108398438 247.0
162.09230041503906 399.0
164.1085662841797 757.0
165.06817626953125 1564.0
166.06494140625 2873.0
167.07559204101562 47060.0
168.08203125 28749.0
169.0878448486328 4952.0
170.09300231933594 4273.0
171.09194946289062 403.0
172.10302734375 244.0
176.1063690185547 37880.0
177.11534118652344 517.0
178.12342834472656 2396.0
179.0742950439453 3667.0
180.08229064941406 82839.0
181.08934020996094 46323.0
182.09730529785156 10341.0
183.09288024902344 3132.0
184.1121063232422 1560.0
185.10362243652344 582.0
186.092041015625 199.0
189.07505798339844 428.0
190.0604705810547 335.0
191.07366943359375 4220.0
192.081787109375 7728.0
193.08863830566406 10291.0
194.09617614746094 41242.0
195.0985107421875 2558.0
196.07786560058594 17779.0
197.0852813720703 23026.0
198.08737182617188 733.0
202.08328247070312 827.0
203.07798767089844 870.0
204.08116149902344 47003.0
205.08880615234375 33381.0
206.09490966796875 28989.0
207.1034698486328 6261.0
208.11448669433594 19224.0
209.10768127441406 4087.0
210.12765502929688 2185.0
211.12155151367188 503.0
212.10757446289062 384.0
215.0897216796875 488.0
216.0870361328125 2970.0
217.0907745361328 33376.0
218.0968475341797 30850.0
219.10316467285156 10212.0
220.11180114746094 81408.0
221.11231994628906 6379.0
222.1234588623047 6616.0
223.12225341796875 5221.0
224.1106719970703 1115.0
225.13706970214844 23231.0
228.0819549560547 596.0
229.09402465820312 939.0
230.0977020263672 17942.0
231.1078338623047 15029.0
232.11163330078125 10517.0
233.11331176757812 4357.0
234.13003540039062 11294.0
235.12315368652344 10728.0
236.13131713867188 7849.0
237.13946533203125 725.0
238.12376403808594 55952.0
241.0823974609375 611.0
242.0966796875 3394.0
243.1087188720703 4389.0
244.11410522460938 6965.0
245.12374877929688 1963.0
246.12887573242188 37207.0
247.12503051757812 3882.0
248.14088439941406 5813.0
249.14109802246094 2172.0
250.12557983398438 2364.0
251.12088012695312 1829.0
256.1113586425781 897.0
258.1298522949219 4048.0
259.12738037109375 648.0
260.147216796875 786.0
261.1372985839844 1053.0
262.14971923828125 723.0
263.1572570800781 3381.0
264.1416320800781 4700.0
265.12786865234375 450.0
266.14569091796875 903.0
273.1418151855469 664.0
274.1446838378906 485.0
275.1540222167969 313.0
276.13958740234375 4009.0
277.1689758300781 12145.0
278.1557922363281 552.0
279.146728515625 767.0
289.16717529296875 2000.0
306.2433776855469 3618.0
307.1846923828125 980976.0
308.09295654296875 1702.0
308.208740234375 1795.0
308.4995422363281 640.0
308.69427490234375 267.0

Name: Usaramine
Precursor_mz: 352.1762667
Cas: 15503-87-4
Adduct: [M+H]+
Mz: 352.175464
Comment: Major
Smiles: C/C=C1\C[C@@H](C)[C@](O)(CO)C(=O)OCC2=CCN3CC[C@@H](OC1=O)[C@@H]23
Formula: C18H25NO6
Mix: Alkaloids-pos-mix14
Rt: [1.903]
Rt_apex: 1.903116595
Rt_start: 1.868566667
Rt_end: 1.9699
Ms1_intensity: 31882
N_scnas: 14
Ms1_scan_range: [535, 540, 550]
Reci_snr: 0.008017167
Ms2_scan_idx: 772
Pmz_offset: 0.000798887
Entropy: 1.0
Num Peaks: 12
67.05432891845703 154.0
77.0374755859375 205.0
80.05215454101562 250.0
91.05648040771484 283.0
93.0681381225586 278.0
94.06451416015625 376.0
96.08143615722656 197.0
120.08065032958984 776.0
123.08099365234375 154.0
138.0933074951172 619.0
324.1812744140625 306.0
352.1814270019531 2945.0

Name: Palmaturbine
Precursor_mz: 338.1392001
Cas: 16176-68-4
Adduct: [M]+
Mz: 338.1386845
Comment: Major
Smiles: COc1cc2c(cc1OC)-c1cc3ccc(OC)c(O)c3c[n+]1CC2
Formula: C20H20NO4+
Mix: Alkaloids-pos-mix14
Rt: [2.758]
Rt_apex: 2.758418527
Rt_start: 2.71485
Rt_end: 3.017666667
Ms1_intensity: 510377
N_scnas: 44
Ms1_scan_range: [662, 669, 707]
Reci_snr: 0.000648278
Ms2_scan_idx: 1376
Pmz_offset: 0.001412051
Entropy: 0.9946765899658203
Num Peaks: 38
196.0764923095703 188.0
206.09552001953125 190.0
220.0770721435547 573.0
221.0879364013672 343.0
222.09275817871094 905.0
225.07669067382812 212.0
232.07171630859375 171.0
233.08616638183594 183.0
234.0963897705078 895.0
235.06361389160156 229.0
236.0738067626953 659.0
249.0842742919922 1692.0
250.08416748046875 4516.0
251.09495544433594 3530.0
252.07437133789062 1004.0
261.0813903808594 338.0
262.0868835449219 7899.0
263.0965881347656 981.0
264.0671691894531 1164.0
265.0738220214844 591.0
277.1044006347656 692.0
278.08642578125 6949.0
279.09130859375 41479.0
280.09564208984375 2897.0
290.0779724121094 695.0
291.08990478515625 2215.0
292.06280517578125 423.0
293.1046142578125 1839.0
294.1169738769531 5274.0
295.1262512207031 1476.0
305.071533203125 752.0
307.0872497558594 125375.0
308.0938720703125 20340.0
320.0962829589844 190.0
322.1105651855469 45639.0
323.11883544921875 142360.0
337.10089111328125 334.0
338.1426696777344 137193.0

Name: Palmaturbine
Precursor_mz: 338.1378158
Cas: 16176-68-4
Adduct: [M]+
Mz: 338.1386845
Comment: isomer
Smiles: COc1cc2c(cc1OC)-c1cc3ccc(OC)c(O)c3c[n+]1CC2
Formula: C20H20NO4+
Mix: Alkaloids-pos-mix14
Rt: [2.758]
Rt_apex: 2.664640303
Rt_start: 2.583683333
Rt_end: 2.71485
Ms1_intensity: 95194
N_scnas: 18
Ms1_scan_range: [643, 655, 662]
Reci_snr: 0.001999231
Ms2_scan_idx: 1296
Pmz_offset: 2.77e-05
Entropy: 0.9906491041183472
Num Peaks: 19
196.0780029296875 93.0
221.08743286132812 93.0
232.0733184814453 93.0
249.08148193359375 193.0
250.08358764648438 741.0
251.08993530273438 506.0
262.08856201171875 1642.0
263.0959777832031 278.0
264.0597229003906 265.0
278.0858154296875 785.0
279.08831787109375 4738.0
280.0926513671875 722.0
291.08685302734375 599.0
295.11834716796875 494.0
307.0840759277344 11261.0
308.09320068359375 3203.0
322.1148681640625 461.0
323.1155700683594 17332.0
338.12640380859375 12604.0

Name: Peiminine
Precursor_mz: 452.30927
Cas: 18059-10-4
Adduct: [M+Na]+
Mz: 452.313515
Comment: Major
Smiles: C[C@H]1CC[C@@H]2N(C1)C[C@@H]1[C@H](CC[C@H]3[C@@H]4CC(=O)[C@H]5C[C@@H](O)CC[C@]5(C)[C@H]4C[C@H]31)[C@]2(C)O
Formula: C27H43NO3
Mix: Alkaloids-pos-mix14
Rt: [2.725]
Rt_apex: 2.737100691
Rt_start: 2.68035
Rt_end: 2.77335
Ms1_intensity: 10227
N_scnas: 13
Ms1_scan_range: [657, 665, 671]
Reci_snr: 0.027898268
Ms2_scan_idx: 1367
Pmz_offset: 0.002952725
Entropy: 1.0
Num Peaks: 2
404.2632751464844 31.0
452.3279113769531 123.0

Name: Crotonoside
Precursor_mz: 284.0987783
Cas: 1818-71-9
Adduct: [M+H]+
Mz: 284.098945
Comment: Major
Smiles: Nc1[nH]c(=O)nc2c1ncn2[C@@H]1O[C@H](CO)[C@@H](O)[C@H]1O
Formula: C10H13N5O5
Mix: Alkaloids-pos-mix14
Rt: [0.345, 0.501]
Rt_apex: 0.344861717
Rt_start: 0.31585
Rt_end: 0.460483333
Ms1_intensity: 654113
N_scnas: 35
Ms1_scan_range: [100, 105, 136]
Reci_snr: 0.000478342
Ms2_scan_idx: 177
Pmz_offset: 0.00201466
Entropy: 0.9601976275444031
Num Peaks: 24
41.03927230834961 154.0
43.016090393066406 356.0
45.03469467163086 154.0
55.01858139038086 513.0
57.033206939697266 563.0
59.05601501464844 62.0
61.029624938964844 300.0
69.03373718261719 246.0
71.0112533569336 195.0
73.02987670898438 205.0
80.02446746826172 228.0
85.03032684326172 291.0
92.02313232421875 62.0
97.0245590209961 123.0
107.03498077392578 901.0
108.01724243164062 154.0
109.05088806152344 1577.0
110.03645324707031 329.0
115.04280853271484 92.0
134.046630859375 1206.0
135.02980041503906 19528.0
152.05612182617188 24821.0
177.03890991210938 62.0
284.0995788574219 566.0

Name: Crotonoside
Precursor_mz: 306.0797511
Cas: 1818-71-9
Adduct: [M+Na]+
Mz: 306.0808892
Comment: Major
Smiles: Nc1[nH]c(=O)nc2c1ncn2[C@@H]1O[C@H](CO)[C@@H](O)[C@H]1O
Formula: C10H13N5O5
Mix: Alkaloids-pos-mix14
Rt: [0.345, 0.501]
Rt_apex: 0.345759165
Rt_start: 0.322683333
Rt_end: 0.39925
Ms1_intensity: 5654
N_scnas: 14
Ms1_scan_range: [101, 105, 116]
Reci_snr: 0.00137781
Ms2_scan_idx: 179
Pmz_offset: 0.002754825
Entropy: 1.0
Num Peaks: 2
174.03797912597656 93.0
306.07415771484375 93.0

Name: Sinapine
Precursor_mz: 310.1665764
Cas: 18696-26-9
Adduct: [M]+
Mz: 310.1648993
Comment: Major
Smiles: COc1cc(/C=C/C(=O)OCC[N+](C)(C)C)cc(OC)c1O
Formula: C16H24NO5+
Mix: Alkaloids-pos-mix14
Rt: [1.955]
Rt_apex: 1.950583435
Rt_start: 1.9169
Rt_end: 2.12605
Ms1_intensity: 1881898
N_scnas: 30
Ms1_scan_range: [542, 547, 573]
Reci_snr: 0.000203654
Ms2_scan_idx: 810
Pmz_offset: 0.002496178
Entropy: 0.9954010248184204
Num Peaks: 84
53.00244140625 308.0
55.018653869628906 611.0
65.04029083251953 3084.0
71.07167053222656 224.0
76.03079223632812 371.0
77.03751373291016 1447.0
78.04837799072266 445.0
79.05459594726562 1784.0
80.05972290039062 601.0
86.09618377685547 462.0
89.03770446777344 4692.0
90.04561614990234 1955.0
91.05518341064453 94079.0
93.03028106689453 484.0
101.0395736694336 3908.0
103.05545043945312 2144.0
104.0250473022461 1745.0
105.03658294677734 550.0
106.04144287109375 726.0
107.04964447021484 3633.0
108.05677032470703 878.0
115.05500030517578 6474.0
116.06877899169922 483.0
117.03386688232422 2793.0
118.04106140136719 7450.0
119.0510482788086 138334.0
121.02987670898438 1660.0
123.04058074951172 315.0
127.05314636230469 560.0
128.06277465820312 807.0
129.0365447998047 12760.0
130.04440307617188 314.0
131.05296325683594 2498.0
132.0235137939453 5651.0
133.02999877929688 972.0
134.03543090820312 3379.0
135.04627990722656 5261.0
136.0511016845703 4385.0
137.05636596679688 177.0
138.0340118408203 291.0
143.04815673828125 699.0
144.0620574951172 373.0
145.03221130371094 2938.0
146.03953552246094 3390.0
147.0469512939453 126563.0
148.0561065673828 369.0
149.02589416503906 5973.0
150.0383758544922 174.0
151.0387725830078 5480.0
157.0423126220703 2964.0
158.03750610351562 195.0
159.04293823242188 269.0
160.017822265625 844.0
161.0615692138672 969.0
162.03369140625 4268.0
163.0391845703125 8133.0
164.04779052734375 14853.0
167.0723114013672 264.0
172.05184936523438 190.0
173.01776123046875 390.0
174.03451538085938 1449.0
175.0430908203125 183176.0
176.04714965820312 731.0
177.05967712402344 605.0
178.06761169433594 236.0
179.0765380859375 7541.0
180.046875 332.0
181.0859375 485.0
189.05615234375 1026.0
190.06472778320312 2774.0
191.03526306152344 3618.0
192.0393829345703 2328.0
193.05784606933594 843.0
200.05197143554688 222.0
206.06309509277344 1448.0
207.0675506591797 87618.0
208.04002380371094 2511.0
218.05584716796875 563.0
219.07037353515625 732.0
235.06338500976562 4889.0
236.0692596435547 5531.0
251.09471130371094 409066.0
252.08749389648438 306.0
310.171142578125 2569.0

Name: Acetylcorynoline
Precursor_mz: 410.1607743
Cas: 18797-80-3
Adduct: [M+H]+
Mz: 410.1598139
Comment: Major
Smiles: CC(=O)O[C@H]1Cc2cc3c(cc2[C@H]2N(C)Cc4c(ccc5c4OCO5)[C@@]12C)OCO3
Formula: C23H23NO6
Mix: Alkaloids-pos-mix15
Rt: [2.994]
Rt_apex: 2.989233197
Rt_start: 2.955183333
Rt_end: 4.10145
Ms1_intensity: 9937024
N_scnas: 186
Ms1_scan_range: [735, 740, 922]
Reci_snr: 0.000158384
Ms2_scan_idx: 1561
Pmz_offset: 0.001545473
Entropy: 0.994972288608551
Num Peaks: 159
42.034934997558594 375.0
43.017799377441406 979.0
44.04833984375 249.0
77.03962707519531 1264.0
79.05298614501953 604.0
89.03862762451172 249.0
91.05342864990234 2255.0
102.04739379882812 172.0
103.05355834960938 4462.0
104.05033874511719 258.0
105.03178405761719 433.0
106.06407928466797 440.0
107.04769897460938 865.0
115.05296325683594 2308.0
117.06977081298828 5138.0
118.06339263916016 5625.0
119.04896545410156 792.0
121.06636810302734 271.0
127.05413818359375 337.0
128.0605926513672 169.0
129.07101440429688 1048.0
130.06460571289062 413.0
131.05075073242188 6144.0
132.079345703125 10696.0
133.0666046142578 288.0
135.045654296875 85740.0
141.0687713623047 211.0
143.04916381835938 566.0
144.0765380859375 942.0
145.06533813476562 14400.0
146.0609130859375 7217.0
147.04795837402344 1222.0
148.04689025878906 213.0
149.05775451660156 6673.0
150.04971313476562 173.0
151.05014038085938 181.0
152.0659942626953 191.0
157.06619262695312 824.0
159.0421905517578 3212.0
160.07566833496094 14172.0
161.05905151367188 5122.0
162.05615234375 27042.0
163.03842163085938 6409.0
164.0614013671875 261.0
165.07135009765625 412.0
169.06004333496094 208.0
172.07681274414062 1631.0
173.06124877929688 1692.0
174.09109497070312 2133.0
175.07569885253906 16761.0
176.07052612304688 37814.0
177.05885314941406 13963.0
178.08551025390625 614.0
179.09072875976562 208.0
185.05921936035156 997.0
186.05519104003906 177.0
187.07493591308594 3391.0
188.06668090820312 6502.0
189.0784149169922 21396.0
190.08706665039062 136720.0
191.08480834960938 1208.0
193.09983825683594 651.0
197.0571746826172 226.0
199.07366943359375 1165.0
200.0708770751953 1270.0
201.07257080078125 1008.0
202.08673095703125 96204.0
203.0874481201172 88554.0
204.09666442871094 462.0
205.0983123779297 4919.0
206.0782470703125 395.0
207.08474731445312 390.0
209.056396484375 478.0
213.0727996826172 739.0
214.07980346679688 341.0
215.08505249023438 2963.0
216.05551147460938 697.0
217.06332397460938 598.0
218.07347106933594 5969.0
219.08181762695312 4228.0
221.0971221923828 824.0
222.07058715820312 480.0
223.07763671875 360.0
230.06942749023438 361.0
231.0816192626953 102196.0
232.08963012695312 861.0
233.0977020263672 20267.0
234.06930541992188 458.0
235.0773468017578 13438.0
236.08323669433594 303.0
237.05239868164062 434.0
241.06649780273438 438.0
242.08074951171875 274.0
243.08181762695312 751.0
245.06158447265625 874.0
246.07098388671875 91039.0
247.0758514404297 3536.0
248.0849609375 2029.0
249.09393310546875 4028.0
250.09384155273438 205.0
251.10687255859375 1025.0
258.06378173828125 254.0
259.0792541503906 24828.0
260.0854187011719 2298.0
261.09124755859375 312712.0
262.0672302246094 3173.0
263.1064758300781 19372.0
264.07025146484375 270.0
265.0906066894531 384.0
266.0556945800781 1348.0
267.06842041015625 661.0
271.0761413574219 1060.0
272.08447265625 305.0
273.0970153808594 882.0
274.06494140625 66893.0
275.07183837890625 1529.0
276.0782470703125 4090.0
277.0841369628906 3454.0
278.0871887207031 328.0
279.068603515625 1780.0
280.0776062011719 212.0
287.0796813964844 292.0
288.0792236328125 811.0
289.087646484375 671207.0
290.0906677246094 1257.0
291.10260009765625 33539.0
292.080322265625 3919.0
293.081298828125 25376.0
294.0840148925781 303.0
295.05706787109375 273.0
303.06317138671875 3052.0
304.075439453125 105973.0
305.1065368652344 656.0
306.0903015136719 17966.0
307.1002502441406 7165.0
308.0946044921875 577.0
309.115234375 1633.0
317.07861328125 349.0
318.073974609375 756.0
319.09844970703125 191060.0
320.0919189453125 7281.0
321.1146240234375 261985.0
322.1465148925781 345.0
332.09588623046875 4052.0
333.1042785644531 551.0
334.11163330078125 6860.0
335.11279296875 7729.0
337.1092834472656 21654.0
346.12255859375 244.0
347.0447998046875 183.0
348.1253662109375 24979.0
349.0686340332031 1205.0
350.1418151855469 717643.0
368.15338134765625 2001.0
408.9045104980469 1380.0
410.16259765625 522282.0
411.2120361328125 557.0
411.4368896484375 526.0
411.6874084472656 325.0

Name: 7-hydroxy-4-methyl-8-nitrocoumarin
Precursor_mz: 222.0386436
Cas: 19037-69-5
Adduct: [M+H]+
Mz: 222.0396988
Comment: Major
Smiles: Cc1cc(=O)oc2c([N+](=O)[O-])c(O)ccc12
Formula: C10H7NO5
Mix: Alkaloids-pos-mix15
Rt: [2.941]
Rt_apex: 2.945803658
Rt_start: 2.888516667
Rt_end: 3.149016667
Ms1_intensity: 330997
N_scnas: 38
Ms1_scan_range: [725, 734, 764]
Reci_snr: 0.002299238
Ms2_scan_idx: 1509
Pmz_offset: 0.000140311
Entropy: 0.9999998807907104
Num Peaks: 31
51.02269744873047 638.0
55.01847457885742 377.0
65.04120635986328 1507.0
77.04095458984375 2814.0
78.0481185913086 558.0
89.04005432128906 2477.0
90.04664611816406 1974.0
91.05487823486328 18484.0
92.0633316040039 1782.0
102.0475082397461 426.0
103.05652618408203 690.0
104.05046081542969 4395.0
105.0333480834961 1722.0
106.04397583007812 230.0
118.04523468017578 4410.0
119.04911041259766 1093.0
120.0572280883789 2069.0
131.05252075195312 450.0
132.04885864257812 371.0
134.0414581298828 180.0
146.03903198242188 805.0
147.0464324951172 611.0
148.05389404296875 18794.0
160.04566955566406 608.0
163.0386199951172 356.0
164.05081176757812 321.0
175.0387725830078 443.0
176.044677734375 6079.0
204.03274536132812 2156.0
205.040283203125 1096.0
222.0478515625 1500.0

Name: Peimisine
Precursor_mz: 428.3167037
Cas: 19773-24-1
Adduct: [M+H]+
Mz: 428.3159206
Comment: Major
Smiles: CC1=C2C[C@H]3[C@@H](CC(=O)[C@H]4C[C@@H](O)CC[C@@]43C)[C@@H]2CC[C@]12O[C@@H]1C[C@H](C)CN[C@H]1[C@H]2C
Formula: C27H41NO3
Mix: Alkaloids-pos-mix15
Rt: [2.569]
Rt_apex: 2.568177605
Rt_start: 2.353066667
Rt_end: 2.735033333
Ms1_intensity: 9249512
N_scnas: 56
Ms1_scan_range: [644, 676, 701]
Reci_snr: 3.84e-05
Ms2_scan_idx: 1172
Pmz_offset: 0.002161959
Entropy: 1.0
Num Peaks: 3
114.08870697021484 46.0
126.12425994873047 46.0
428.322021484375 138.0

Name: Solamargine
Precursor_mz: 868.5065812
Cas: 20311-51-7
Adduct: [M+H]+
Mz: 868.5052971
Comment: Major
Smiles: C[C@@H]1O[C@@H](O[C@H]2[C@H](O)[C@@H](O[C@@H]3O[C@@H](C)[C@H](O)[C@@H](O)[C@H]3O)[C@H](O[C@H]3CC[C@@]4(C)C(=CC[C@H]5[C@@H]6C[C@@H]7O[C@]8(CC[C@@H](C)CN8)[C@@H](C)[C@@H]7[C@@]6(C)CC[C@@H]54)C3)O[C@@H]2CO)[C@H](O)[C@H](O)[C@H]1O
Formula: C45H73NO15
Mix: Alkaloids-pos-mix15
Rt: [3.028]
Rt_apex: 3.025036624
Rt_start: 2.98135
Rt_end: 4.220583333
Ms1_intensity: 4317146
N_scnas: 208
Ms1_scan_range: [739, 746, 948]
Reci_snr: 0.000573786
Ms2_scan_idx: 1592
Pmz_offset: 0.002850599
Entropy: 0.9150455594062805
Num Peaks: 70
57.032005310058594 520.0
70.06228637695312 749.0
71.04773712158203 2177.0
81.06836700439453 226.0
83.0514907836914 346.0
85.02751922607422 7048.0
87.04249572753906 211.0
95.08502960205078 224.0
96.08523559570312 332.0
103.03795623779297 217.0
105.07357025146484 233.0
107.0826187133789 449.0
109.09896850585938 656.0
111.04241943359375 872.0
114.08867645263672 3559.0
117.0546646118164 202.0
121.10196685791016 327.0
123.11793518066406 266.0
124.11183166503906 944.0
126.12895965576172 1228.0
127.1095962524414 606.0
129.05516052246094 6430.0
131.0813751220703 264.0
133.1039276123047 674.0
135.11260986328125 199.0
143.0895538330078 297.0
144.13897705078125 809.0
145.0992431640625 474.0
147.06338500976562 3576.0
151.11578369140625 231.0
153.05238342285156 176.0
157.09796142578125 1464.0
159.12017822265625 888.0
161.1357421875 187.0
163.0510711669922 396.0
171.11915588378906 285.0
183.1134033203125 223.0
197.13414001464844 198.0
225.1597900390625 191.0
239.09445190429688 399.0
253.195068359375 9176.0
255.08326721191406 471.0
255.20655822753906 252.0
257.09771728515625 215.0
271.2080383300781 2081.0
273.1041564941406 240.0
275.111572265625 390.0
293.1343688964844 276.0
309.1178894042969 169.0
378.32037353515625 493.0
379.29547119140625 403.0
396.3266296386719 1780.0
414.3371887207031 1987.0
542.4033203125 187.0
560.388671875 490.0
576.3842163085938 466.0
704.4429321289062 303.0
722.4537963867188 1010.0
725.3649291992188 297.0
850.4984741210938 30807.0
851.4850463867188 350.0
867.4602661132812 187.0
868.0886840820312 153.0
868.5104370117188 1168510.0
870.368408203125 1853.0
870.7327880859375 1178.0
870.894287109375 306.0
871.0433959960938 168.0
871.37060546875 171.0
871.511474609375 167.0

Name: Talatisamine
Precursor_mz: 422.2906847
Cas: 20501-56-8
Adduct: [M+H]+
Mz: 422.2900998
Comment: Major
Smiles: CCN1C[C@]2(COC)CC[C@H](OC)[C@]34C1[C@H](C[C@H]23)[C@@]1(O)C[C@H](OC)[C@H]2C[C@@H]4[C@@H]1[C@H]2O
Formula: C24H39NO5
Mix: Alkaloids-pos-mix15
Rt: [2.201]
Rt_apex: 2.200872002
Rt_start: 2.15825
Rt_end: 2.592383333
Ms1_intensity: 9292707
N_scnas: 66
Ms1_scan_range: [613, 620, 680]
Reci_snr: 1.19e-05
Ms2_scan_idx: 963
Pmz_offset: 0.001591423
Entropy: 0.8534519672393799
Num Peaks: 227
41.038265228271484 789.0
42.03312683105469 695.0
43.01781463623047 1709.0
44.049285888671875 645.0
45.03363037109375 1093.0
46.064083099365234 278.0
55.05278396606445 335.0
56.04852294921875 4050.0
58.065704345703125 47124.0
59.04829788208008 421.0
61.02835464477539 2028.0
67.05408477783203 898.0
70.06578826904297 604.0
71.05007934570312 2175.0
72.08055114746094 7129.0
77.03842163085938 1141.0
79.05551147460938 3087.0
80.04808807373047 499.0
81.0683364868164 1428.0
82.06580352783203 297.0
83.05146026611328 262.0
84.080322265625 3129.0
85.06502532958984 798.0
88.0746078491211 790.0
91.05345916748047 10349.0
94.06416320800781 503.0
95.04804992675781 1045.0
96.07969665527344 707.0
97.06575012207031 981.0
98.0971450805664 31406.0
102.09137725830078 3811.0
103.03791809082031 1637.0
105.0692138671875 5427.0
107.0477294921875 1871.0
108.08110809326172 16495.0
109.06375885009766 1349.0
110.09648895263672 1543.0
111.04534149169922 293.0
115.05450439453125 1972.0
116.05770111083984 335.0
117.07132720947266 5631.0
119.08728790283203 2104.0
120.08326721191406 301.0
121.06641387939453 1752.0
122.09542846679688 3314.0
123.04471588134766 1603.0
124.1117935180664 3728.0
125.05946350097656 348.0
127.0557632446289 566.0
128.06063842773438 2442.0
129.0694580078125 6073.0
130.0758514404297 538.0
131.0829315185547 8114.0
132.09228515625 470.0
133.10064697265625 2026.0
134.0966033935547 613.0
136.11273193359375 626.0
137.06234741210938 2291.0
139.07574462890625 248.0
140.1070556640625 1312.0
141.0704803466797 4897.0
142.07736206054688 1091.0
143.0861358642578 8479.0
144.0917510986328 425.0
145.10256958007812 4587.0
146.0931854248047 204.0
147.08204650878906 1063.0
148.11183166503906 616.0
149.05950927734375 338.0
150.1305694580078 336.0
151.07606506347656 459.0
152.1041259765625 1138.0
153.07142639160156 1389.0
154.1236572265625 7027.0
155.08511352539062 7007.0
156.13548278808594 647.0
157.10142517089844 3568.0
158.09681701660156 305.0
159.11305236816406 1820.0
161.09649658203125 902.0
162.12945556640625 520.0
163.11195373535156 497.0
165.06961059570312 1758.0
166.07542419433594 837.0
167.08428955078125 3873.0
168.09439086914062 861.0
169.10206604003906 7223.0
171.11358642578125 3635.0
172.10447692871094 391.0
173.12777709960938 1268.0
174.12632751464844 597.0
175.11289978027344 651.0
176.141357421875 1244.0
177.09251403808594 283.0
178.0780792236328 1402.0
179.08326721191406 3305.0
180.09129333496094 905.0
181.10214233398438 5510.0
182.10635375976562 720.0
183.1171417236328 5789.0
184.11167907714844 178.0
185.09555053710938 1141.0
186.12799072265625 764.0
187.11146545410156 809.0
188.14566040039062 898.0
189.14794921875 825.0
190.15872192382812 494.0
191.0887451171875 1606.0
192.091064453125 1967.0
193.1018524169922 4403.0
194.1094207763672 1188.0
195.11569213867188 5748.0
196.1226043701172 489.0
197.1340789794922 6562.0
198.13037109375 235.0
200.1483612060547 353.0
201.12835693359375 944.0
202.16261291503906 294.0
203.0875244140625 793.0
204.09271240234375 682.0
205.10440063476562 2253.0
206.10853576660156 1137.0
207.119140625 4986.0
208.12615966796875 382.0
209.1315460205078 3818.0
210.09664916992188 243.0
211.14349365234375 937.0
212.14796447753906 268.0
213.12818908691406 1051.0
216.0906524658203 221.0
217.10475158691406 635.0
218.11083984375 876.0
219.1151123046875 1693.0
220.13002014160156 500.0
221.13267517089844 2294.0
222.1815185546875 397.0
223.14688110351562 3690.0
224.12905883789062 182.0
225.13233947753906 4601.0
226.1547393798828 211.0
227.14137268066406 766.0
229.1572265625 1093.0
230.10781860351562 928.0
231.12437438964844 352.0
232.12391662597656 346.0
233.13633728027344 2709.0
234.1423797607422 202.0
235.1484375 3217.0
236.15016174316406 296.0
237.16700744628906 1648.0
238.16436767578125 282.0
239.14212036132812 1008.0
240.17840576171875 361.0
241.12322998046875 666.0
243.1365966796875 2298.0
245.13636779785156 1457.0
247.1487274169922 1587.0
249.1582489013672 380.0
250.1383056640625 266.0
251.1425323486328 2675.0
252.17774963378906 638.0
253.1592559814453 1508.0
255.17507934570312 658.0
256.16912841796875 477.0
257.15386962890625 2871.0
261.1639099121094 491.0
263.1429748535156 1983.0
265.15924072265625 3136.0
266.1931457519531 265.0
269.15728759765625 700.0
270.1850891113281 196.0
271.1686706542969 259.0
272.197998046875 338.0
273.15277099609375 336.0
275.169677734375 445.0
277.1659851074219 519.0
279.1741943359375 1609.0
280.2115783691406 409.0
281.1637878417969 561.0
282.1812744140625 297.0
283.1722412109375 3753.0
284.2027893066406 281.0
285.1878356933594 2321.0
289.1808166503906 1151.0
290.18878173828125 611.0
293.18951416015625 374.0
294.1875915527344 205.0
295.1777038574219 1461.0
297.1871337890625 1918.0
298.2186279296875 666.0
300.1921691894531 246.0
301.2020568847656 219.0
306.205810546875 223.0
308.2030944824219 1953.0
311.2062072753906 702.0
312.1947937011719 803.0
313.17498779296875 337.0
314.208984375 437.0
315.19732666015625 1245.0
316.2271423339844 298.0
318.21173095703125 221.0
322.21209716796875 940.0
326.2095947265625 3703.0
327.1963195800781 727.0
328.2328186035156 372.0
329.2098693847656 380.0
330.2138671875 1694.0
332.223876953125 188.0
334.239990234375 215.0
340.2291564941406 10090.0
344.22979736328125 2124.0
345.23553466796875 587.0
354.2425231933594 541.0
358.23944091796875 35111.0
362.2347717285156 4246.0
372.2550354003906 24916.0
390.2677307128906 683144.0
391.2914123535156 223.0
404.2808532714844 589.0
420.99945068359375 3841.0
422.2933044433594 1229693.0
423.3638916015625 2647.0
423.49383544921875 2773.0
423.6700134277344 427.0
423.8404541015625 909.0
423.95892333984375 280.0
424.3837890625 165.0

Name: Berberine
Precursor_mz: 336.1227816
Cas: 2086-83-1
Adduct: [M]+
Mz: 336.1230345
Comment: Major
Smiles: COc1ccc2cc3[n+](cc2c1OC)CCc1cc2c(cc1-3)OCO2
Formula: C20H18NO4+
Mix: Alkaloids-pos-mix15
Rt: [2.939]
Rt_apex: 2.939888178
Rt_start: 2.8162
Rt_end: 5.190216667
Ms1_intensity: 5746577
N_scnas: 459
Ms1_scan_range: [714, 733, 1174]
Reci_snr: 0.000582339
Ms2_scan_idx: 1516
Pmz_offset: 0.000206492
Entropy: 0.995372474193573
Num Peaks: 76
150.0481719970703 154.0
151.0520477294922 333.0
163.05294799804688 390.0
164.0615997314453 173.0
165.07334899902344 493.0
176.06143188476562 253.0
177.05718994140625 589.0
178.08197021484375 279.0
189.06900024414062 725.0
190.06407165527344 833.0
191.0714569091797 2834.0
192.0834503173828 876.0
201.05490112304688 154.0
202.0630340576172 494.0
203.0836944580078 376.0
204.0808563232422 3180.0
205.05233764648438 1446.0
206.09661865234375 613.0
207.07086181640625 359.0
215.0811767578125 215.0
216.0805206298828 1285.0
217.092529296875 1334.0
218.09652709960938 447.0
219.06961059570312 2159.0
220.0781707763672 4495.0
221.0806884765625 362.0
222.09176635742188 744.0
225.08200073242188 369.0
231.069091796875 516.0
232.0792236328125 2436.0
233.08297729492188 2753.0
234.09104919433594 7380.0
235.06471252441406 2714.0
236.10293579101562 580.0
244.07427978515625 373.0
245.08384704589844 977.0
246.09109497070312 2504.0
247.0717315673828 1610.0
248.07420349121094 7132.0
249.07872009277344 7364.0
250.08969116210938 2438.0
258.0888671875 154.0
259.0614929199219 362.0
260.07440185546875 3994.0
261.07794189453125 2194.0
262.0879821777344 15387.0
263.0726318359375 15111.0
264.1070556640625 6533.0
274.086181640625 6310.0
275.0954284667969 55479.0
276.1042175292969 4274.0
277.07513427734375 20204.0
278.08282470703125 422625.0
279.0830078125 318.0
288.0605163574219 1507.0
289.0760498046875 4976.0
290.0838317871094 17441.0
291.0933837890625 20624.0
292.099853515625 729273.0
293.10809326171875 884.0
302.0870666503906 748.0
303.0537414550781 1222.0
304.1002502441406 213805.0
305.07012939453125 2053.0
306.0783996582031 228422.0
317.0989685058594 455.0
318.079345703125 208123.0
319.1163635253906 1992.0
320.0948181152344 992347.0
321.1024475097656 532393.0
322.1015625 242.0
335.0900573730469 1976.0
336.1261291503906 735004.0
337.0736083984375 1008.0
337.1998596191406 849.0
337.506591796875 486.0

Name: Dendrobine
Precursor_mz: 264.1957628
Cas: 2115-91-5
Adduct: [M+H]+
Mz: 264.1958055
Comment: Major
Smiles: CC(C)[C@@H]1[C@H]2OC(=O)[C@@H]1[C@@H]1CC[C@@H]3CN(C)[C@H]2[C@@]31C
Formula: C16H25NO2
Mix: Alkaloids-pos-mix15
Rt: [2.286]
Rt_apex: 2.282407473
Rt_start: 2.241233333
Rt_end: 2.566383333
Ms1_intensity: 5084958
N_scnas: 48
Ms1_scan_range: [627, 633, 676]
Reci_snr: 1.6e-05
Ms2_scan_idx: 1021
Pmz_offset: 0.001992647
Entropy: 0.8637173771858215
Num Peaks: 106
41.03915786743164 6685.0
43.0537109375 3754.0
44.05021286010742 130889.0
51.01963806152344 172.0
53.03900146484375 484.0
55.05485916137695 7857.0
56.05061721801758 1174.0
58.065696716308594 1388.0
59.04936981201172 399.0
65.03887939453125 618.0
67.05406951904297 5730.0
68.05062103271484 994.0
69.06968688964844 4875.0
70.0657730102539 45247.0
71.05125427246094 325.0
77.03964233398438 4695.0
79.05425262451172 10983.0
81.06958770751953 11263.0
82.06578826904297 4172.0
84.08030700683594 9570.0
85.0663070678711 263.0
88.04167175292969 396.0
91.0547866821289 29363.0
96.08106231689453 9880.0
97.06159210205078 1139.0
98.06098937988281 1812.0
99.08367156982422 310.0
100.0765609741211 237.0
103.05500030517578 1732.0
104.0575180053711 241.0
105.07064056396484 52478.0
106.0669937133789 969.0
107.0854721069336 19930.0
108.08110046386719 32703.0
110.09647369384766 7637.0
114.05265045166016 684.0
115.05599212646484 1731.0
116.06373596191406 936.0
117.06978607177734 6929.0
122.09696197509766 29747.0
126.1273193359375 933.0
127.05890655517578 201.0
128.05743408203125 1126.0
129.071044921875 2167.0
130.0774383544922 2676.0
134.09657287597656 4231.0
135.11744689941406 4527.0
137.08534240722656 1178.0
138.12904357910156 4070.0
139.0757293701172 444.0
140.10704040527344 276.0
141.07546997070312 229.0
142.1258544921875 482.0
143.08612060546875 2758.0
144.08668518066406 445.0
145.10255432128906 29156.0
146.0965576171875 4920.0
148.11180114746094 6184.0
149.12118530273438 1473.0
151.07603454589844 358.0
152.1092987060547 1035.0
156.09512329101562 232.0
157.10316467285156 676.0
158.10562133789062 331.0
159.11302185058594 2353.0
160.11297607421875 3538.0
161.13209533691406 6688.0
164.1459197998047 1693.0
170.1127166748047 613.0
171.1135711669922 185.0
172.12655639648438 450.0
173.1000518798828 917.0
175.14073181152344 8562.0
176.1431884765625 36331.0
178.1230010986328 3580.0
179.11329650878906 372.0
187.14791870117188 4986.0
189.16336059570312 1789.0
190.12966918945312 2368.0
191.13722229003906 1651.0
193.1622772216797 229.0
202.1605987548828 2516.0
205.15463256835938 843.0
206.1185760498047 4715.0
208.1322021484375 1388.0
210.14950561523438 839.0
216.17933654785156 379.0
218.191650390625 63673.0
220.20703125 1892.0
221.14306640625 436.0
222.15220642089844 1233.0
236.20188903808594 14418.0
246.18551635742188 8801.0
248.16680908203125 198.0
249.17593383789062 389.0
263.3934020996094 6364.0
264.2002868652344 1213180.0
265.0403747558594 4314.0
265.14776611328125 3757.0
265.42205810546875 1670.0
265.6004333496094 248.0
265.76055908203125 351.0
266.2892761230469 171.0
266.4496154785156 217.0
266.81396484375 195.0
267.1946105957031 181.0

Name: Dendrobine
Precursor_mz: 286.1753179
Cas: 2115-91-5
Adduct: [M+Na]+
Mz: 286.1777498
Comment: Major
Smiles: CC(C)[C@@H]1[C@H]2OC(=O)[C@@H]1[C@@H]1CC[C@@H]3CN(C)[C@H]2[C@@]31C
Formula: C16H25NO2
Mix: Alkaloids-pos-mix15
Rt: [2.286]
Rt_apex: 2.281420605
Rt_start: 2.247733333
Rt_end: 2.3329
Ms1_intensity: 5627
N_scnas: 12
Ms1_scan_range: [628, 633, 641]
Reci_snr: 0.172733634
Ms2_scan_idx: 1032
Pmz_offset: 0.003226892
Entropy: nan
Num Peaks: 1
286.1792907714844 168.0

Name: (+)-Magnoflorine
Precursor_mz: 342.1698917
Cas: 9/5/41
Adduct: [M]+
Mz: 342.1699847
Comment: Major
Smiles: COc1ccc2c(c1O)-c1c(O)c(OC)cc3c1[C@H](C2)[N+](C)(C)CC3
Formula: C20H24NO4+
Mix: Alkaloids-pos-mix15
Rt: [2.034]
Rt_apex: 2.038700727
Rt_start: 1.9766
Rt_end: 2.197566667
Ms1_intensity: 1914359
N_scnas: 33
Ms1_scan_range: [585, 594, 619]
Reci_snr: 0.000861914
Ms2_scan_idx: 838
Pmz_offset: 0.002085595
Entropy: 0.99869704246521
Num Peaks: 91
42.0340461730957 2088.0
43.040836334228516 872.0
44.05115509033203 198.0
56.04853057861328 357.0
58.065711975097656 126805.0
115.05301666259766 286.0
141.0705108642578 254.0
151.05711364746094 337.0
152.06088256835938 910.0
153.06971740722656 817.0
164.05967712402344 206.0
165.07144165039062 6581.0
166.075439453125 2669.0
167.08612060546875 648.0
168.0580291748047 426.0
176.06130981445312 872.0
177.06640625 1814.0
178.07997131347656 3043.0
179.08517456054688 5053.0
180.0950927734375 296.0
181.09840393066406 1352.0
182.07040405273438 254.0
189.06886291503906 2940.0
190.07554626464844 4260.0
191.0868377685547 16983.0
192.0580291748047 341.0
193.06483459472656 4038.0
194.0723114013672 6633.0
195.08631896972656 1325.0
196.09120178222656 234.0
197.0592498779297 373.0
201.0706787109375 1624.0
202.08084106445312 714.0
203.08155822753906 547.0
204.05465698242188 613.0
205.06625366210938 7963.0
206.07229614257812 942.0
207.080810546875 9477.0
208.0877227783203 2750.0
209.09506225585938 7691.0
210.06820678710938 225.0
211.0701141357422 852.0
217.06549072265625 1315.0
218.07150268554688 1551.0
219.08399963378906 14129.0
220.09674072265625 588.0
221.06175231933594 3894.0
222.06651306152344 18494.0
223.07565307617188 1337.0
224.08287048339844 905.0
225.0902557373047 319.0
233.06138610839844 4511.0
234.07156372070312 645.0
235.07315063476562 4798.0
236.08335876464844 4433.0
237.09140014648438 24302.0
238.0626220703125 491.0
239.06837463378906 3553.0
240.08493041992188 173.0
241.09494018554688 179.0
246.0644989013672 201.0
247.0759735107422 3644.0
248.0850830078125 457.0
249.05418395996094 1721.0
250.06289672851562 2759.0
251.0669708251953 1977.0
252.07528686523438 575.0
253.090087890625 1601.0
254.0912628173828 577.0
255.06976318359375 193.0
263.0747375488281 1630.0
264.07720947265625 1416.0
265.08843994140625 99224.0
266.0970458984375 2141.0
267.0708312988281 4592.0
269.1204833984375 1138.0
270.090576171875 183.0
279.1039123535156 2280.0
281.1097106933594 467.0
282.09173583984375 32162.0
283.0967102050781 303.0
284.110595703125 2729.0
295.1247253417969 173.0
297.1145935058594 95036.0
299.128173828125 7317.0
310.14263916015625 360.0
311.1319885253906 1057.0
313.1477355957031 305.0
327.1582946777344 284.0
341.1202392578125 199.0
342.1733703613281 54663.0

Name: Neferine
Precursor_mz: 625.3289221
Cas: 2292-16-2
Adduct: [M+H]+
Mz: 625.3272136
Comment: Major
Smiles: COc1ccc(C[C@@H]2c3cc(Oc4cc(C[C@@H]5c6cc(OC)c(OC)cc6CCN5C)ccc4O)c(OC)cc3CCN2C)cc1
Formula: C38H44N2O6
Mix: Alkaloids-pos-mix16
Rt: [2.415]
Rt_apex: 2.413067322
Rt_start: 2.376783333
Rt_end: 2.45695
Ms1_intensity: 1532779
N_scnas: 11
Ms1_scan_range: [651, 656, 663]
Reci_snr: 0.00120505
Ms2_scan_idx: 1092
Pmz_offset: 0.002103886
Entropy: 0.9166508913040161
Num Peaks: 123
44.051170349121094 551.0
91.05752563476562 206.0
103.0522232055664 256.0
105.0649642944336 239.0
107.04924774169922 271.0
115.05156707763672 236.0
121.06494140625 5709.0
133.06674194335938 224.0
135.0816650390625 2158.0
137.05751037597656 330.0
144.08511352539062 394.0
145.08914184570312 810.0
147.0804443359375 364.0
151.07615661621094 873.0
158.0686798095703 656.0
159.08128356933594 567.0
160.072265625 346.0
161.0912628173828 266.0
162.0902557373047 819.0
163.09951782226562 687.0
165.0913543701172 1101.0
173.08358764648438 236.0
174.0912628173828 2782.0
175.10000610351562 877.0
176.10423278808594 5663.0
177.0907745361328 294.0
188.10536193847656 370.0
189.0940399169922 2322.0
190.08724975585938 1986.0
191.09469604492188 1949.0
192.09896850585938 631.0
204.1008758544922 909.0
206.12075805664062 140211.0
208.09390258789062 175.0
209.0951690673828 483.0
218.11929321289062 237.0
220.13226318359375 437.0
221.08900451660156 444.0
222.1063690185547 169.0
223.10931396484375 351.0
234.06309509277344 166.0
235.11416625976562 358.0
236.0791778564453 188.0
237.09800720214844 501.0
238.09523010253906 418.0
239.10972595214844 568.0
243.09957885742188 183.0
249.09640502929688 851.0
251.11380004882812 1025.0
252.11106872558594 280.0
253.12147521972656 799.0
254.1294403076172 1382.0
255.10577392578125 439.0
257.1180725097656 443.0
263.10675048828125 188.0
264.1161193847656 173.0
265.1251525878906 440.0
266.126953125 3759.0
267.1099853515625 917.0
268.1086120605469 408.0
269.1183166503906 1187.0
270.1206970214844 486.0
278.12725830078125 277.0
279.1111145019531 267.0
280.14129638671875 350.0
281.1122131347656 809.0
282.1248779296875 883.0
283.1086730957031 999.0
284.13201904296875 354.0
285.1122131347656 728.0
290.1340026855469 222.0
295.1562194824219 952.0
296.1310729980469 581.0
297.1800842285156 1147.0
298.1461486816406 569.0
310.1502380371094 320.0
311.1544494628906 290.0
312.1603088378906 896.0
387.1746826171875 324.0
388.1860046386719 174.0
389.18756103515625 183.0
401.1776123046875 215.0
402.1648254394531 217.0
416.18475341796875 263.0
417.193115234375 182.0
418.19696044921875 561.0
419.2135009765625 2017.0
429.19964599609375 245.0
430.2032775878906 810.0
432.2169494628906 189.0
442.199462890625 375.0
444.1818542480469 247.0
446.19830322265625 3595.0
448.2371520996094 225.0
458.1976318359375 1689.0
460.2095031738281 2230.0
461.224609375 3317.0
471.2301025390625 389.0
472.214599609375 294.0
473.24285888671875 1805.0
474.22943115234375 1808.0
489.2416687011719 26263.0
503.2687072753906 2958.0
504.2672119140625 1621.0
520.2207641601562 220.0
532.2218627929688 171.0
536.2244873046875 261.0
548.2269897460938 357.0
551.2508544921875 1620.0
552.2265625 191.0
562.26416015625 387.0
563.2529296875 751.0
566.2611083984375 310.0
579.2720947265625 184.0
580.279052734375 592.0
582.288818359375 11034.0
593.2953491210938 692.0
594.2904663085938 14981.0
596.3072509765625 384.0
607.3030395507812 214.0
608.2925415039062 234.0
625.33544921875 366116.0
627.2213745117188 160.0

Name: Peimine
Precursor_mz: 432.348285
Cas: 23496-41-5
Adduct: [M+H]+
Mz: 432.3472208
Comment: Major
Smiles: C[C@H]1CC[C@@H]2N(C1)C[C@@H]1[C@H](CC[C@H]3[C@@H]4C[C@H](O)[C@H]5C[C@@H](O)CC[C@]5(C)[C@H]4C[C@H]31)[C@]2(C)O
Formula: C27H45NO3
Mix: Alkaloids-pos-mix16
Rt: [2.639]
Rt_apex: 2.640281433
Rt_start: 2.5861
Rt_end: 2.9594
Ms1_intensity: 10104123
N_scnas: 55
Ms1_scan_range: [682, 690, 738]
Reci_snr: 5.65e-05
Ms2_scan_idx: 1292
Pmz_offset: 0.002570908
Entropy: 0.6189633011817932
Num Peaks: 85
44.04828643798828 323.0
55.053741455078125 271.0
67.05398559570312 720.0
69.06959533691406 205.0
70.06568145751953 310.0
77.03831481933594 550.0
79.0553970336914 826.0
80.0479736328125 204.0
81.0694808959961 1383.0
84.07891082763672 351.0
91.05332946777344 1900.0
94.06539154052734 266.0
95.08760070800781 2549.0
96.07955932617188 425.0
98.09700012207031 9633.0
105.07194519042969 1849.0
107.08534240722656 1098.0
108.08096313476562 214.0
109.10171508789062 313.0
110.09339141845703 750.0
112.11249542236328 15067.0
115.05435180664062 223.0
117.06813049316406 480.0
119.0855941772461 966.0
121.10176086425781 1072.0
122.09215545654297 212.0
123.07880401611328 695.0
124.11318969726562 1554.0
125.1205062866211 379.0
129.0708770751953 242.0
131.08596801757812 924.0
133.10533142089844 1066.0
136.11090087890625 569.0
138.13052368164062 1465.0
142.07884216308594 206.0
143.0842742919922 636.0
145.1023712158203 1079.0
147.1175994873047 910.0
148.1150360107422 1702.0
149.1244354248047 254.0
150.12864685058594 1783.0
155.08840942382812 291.0
157.1064910888672 596.0
159.1163787841797 943.0
161.1319122314453 657.0
162.12745666503906 1049.0
163.13323974609375 679.0
164.14393615722656 428.0
169.0963592529297 420.0
173.13124084472656 475.0
174.13165283203125 290.0
175.1423797607422 609.0
176.1429901123047 582.0
178.15087890625 265.0
183.11500549316406 261.0
185.131591796875 390.0
187.147705078125 254.0
197.13185119628906 722.0
199.1507110595703 359.0
201.16590881347656 261.0
202.15835571289062 310.0
216.17909240722656 237.0
239.1743621826172 180.0
253.1946563720703 215.0
256.2092590332031 336.0
258.1875305175781 250.0
270.2262878417969 196.0
281.2316589355469 344.0
286.2216796875 191.0
299.2369689941406 708.0
370.27252197265625 173.0
384.2909240722656 655.0
386.3073425292969 219.0
398.3064880371094 10957.0
412.32794189453125 1914.0
414.3393859863281 1161635.0
431.0236511230469 4988.0
432.15484619140625 193.0
432.3503112792969 1150801.0
433.427734375 2669.0
433.5650634765625 3057.0
433.9128723144531 790.0
434.0210266113281 290.0
434.13214111328125 192.0
434.3602294921875 191.0

Name: Norisoboldine
Precursor_mz: 314.1398889
Cas: 23599-69-1
Adduct: [M+H]+
Mz: 314.1386845
Comment: Major
Smiles: COc1cc2c(cc1O)C[C@@H]1NCCc3cc(OC)c(O)c-2c31
Formula: C18H19NO4
Mix: Alkaloids-pos-mix16
Rt: [1.962]
Rt_apex: 1.962169646
Rt_start: 1.92015
Rt_end: 2.118633333
Ms1_intensity: 913935
N_scnas: 28
Ms1_scan_range: [584, 590, 613]
Reci_snr: 0.001096875
Ms2_scan_idx: 772
Pmz_offset: 0.002665803
Entropy: 0.9995030760765076
Num Peaks: 73
55.01633071899414 205.0
115.05750274658203 352.0
128.0606231689453 351.0
129.06785583496094 168.0
139.0509033203125 356.0
141.07046508789062 843.0
151.05189514160156 1192.0
152.05911254882812 798.0
153.06967163085938 1060.0
154.07835388183594 422.0
155.08509826660156 1357.0
164.0596466064453 379.0
165.06959533691406 16437.0
166.0790252685547 4970.0
167.08607482910156 404.0
168.05616760253906 655.0
169.063720703125 374.0
176.06126403808594 5208.0
177.07009887695312 43550.0
178.07618713378906 746.0
179.0851287841797 767.0
181.06246948242188 654.0
182.0703582763672 379.0
183.08103942871094 4653.0
187.0807342529297 229.0
189.06687927246094 847.0
190.0774383544922 525.0
191.08485412597656 2068.0
193.06478881835938 4483.0
194.072265625 53821.0
195.0823516845703 793.0
196.05381774902344 242.0
197.0552520751953 625.0
198.06715393066406 250.0
201.05670166015625 342.0
204.05661010742188 621.0
205.0662078857422 80922.0
206.07225036621094 2248.0
207.08074951171875 1161.0
208.08767700195312 392.0
209.09500122070312 1447.0
210.0620574951172 440.0
211.07618713378906 8020.0
219.0797882080078 773.0
221.0637969970703 4188.0
222.06646728515625 40150.0
223.07769775390625 5992.0
225.0902099609375 1341.0
226.0977325439453 1318.0
227.0736846923828 485.0
233.05918884277344 12483.0
234.06936645507812 3159.0
235.07740783691406 725.0
236.0897674560547 794.0
237.0913543701172 146170.0
238.06256103515625 235.0
239.0704803466797 19936.0
240.07183837890625 203.0
247.078125 450.0
249.05856323242188 509.0
250.06283569335938 5002.0
251.07357788085938 4382.0
253.08779907226562 1257.0
254.09791564941406 7257.0
264.0726013183594 361.0
265.08837890625 105921.0
266.0946960449219 5350.0
267.0661926269531 11425.0
269.1158142089844 194.0
281.0814208984375 199.0
282.0916748046875 15080.0
297.1145324707031 22344.0
314.1393127441406 369.0

Name: Leonurine
Precursor_mz: 312.1555126
Cas: 24697-74-3
Adduct: [M+H]+
Mz: 312.1553972
Comment: Major
Smiles: COc1cc(C(=O)OCCCCNC(=N)N)cc(OC)c1O
Formula: C14H21N3O5
Mix: Alkaloids-pos-mix16
Rt: [2.192, 2.366]
Rt_apex: 2.191037618
Rt_start: 2.118633333
Rt_end: 2.259616667
Ms1_intensity: 602682
N_scnas: 20
Ms1_scan_range: [613, 624, 634]
Reci_snr: 0.000530401
Ms2_scan_idx: 962
Pmz_offset: 0.002232812
Entropy: 0.9966641068458557
Num Peaks: 28
43.02885055541992 610.0
55.029869079589844 1773.0
60.0565299987793 651.0
65.03775024414062 1739.0
67.0540771484375 619.0
72.08173370361328 9699.0
73.06444549560547 487.0
77.03842163085938 756.0
81.03169250488281 199.0
82.04164123535156 1188.0
85.0274887084961 1516.0
90.09317779541016 575.0
93.03529357910156 943.0
95.0494155883789 256.0
97.07819366455078 5966.0
108.02421569824219 810.0
110.03759765625 1721.0
114.10213470458984 5237.0
123.00736236572266 562.0
125.05946350097656 1003.0
132.1148681640625 2125.0
137.02293395996094 331.0
138.03176879882812 1164.0
140.0505828857422 797.0
153.0575408935547 6237.0
155.07289123535156 197.0
181.05116271972656 40907.0
312.1601257324219 1601.0

Name: Crebanine
Precursor_mz: 340.1550212
Cas: 25127-29-1
Adduct: [M+H]+
Mz: 340.1543346
Comment: Major
Smiles: COc1ccc2c(c1OC)C[C@@H]1c3c(cc4c(c3-2)OCO4)CCN1C
Formula: C20H21NO4
Mix: Alkaloids-pos-mix16
Rt: [2.946]
Rt_apex: 2.947009543
Rt_start: 2.898416667
Rt_end: 3.366083333
Ms1_intensity: 1109705
N_scnas: 69
Ms1_scan_range: [729, 736, 799]
Reci_snr: 8.22e-05
Ms2_scan_idx: 1527
Pmz_offset: 0.001974115
Entropy: 0.998823881149292
Num Peaks: 70
44.050201416015625 525.0
152.05909729003906 316.0
153.06967163085938 274.0
164.06503295898438 123.0
165.06777954101562 3101.0
166.07901000976562 201.0
167.087890625 522.0
176.06126403808594 533.0
177.07008361816406 977.0
178.07618713378906 1429.0
179.0851287841797 1653.0
180.09315490722656 381.0
181.06813049316406 535.0
189.0688018798828 1809.0
190.07936096191406 1255.0
191.0867919921875 2421.0
193.0667266845703 3308.0
194.07029724121094 549.0
195.07843017578125 881.0
196.09310913085938 123.0
201.07061767578125 343.0
202.07679748535156 230.0
204.0626220703125 531.0
205.06419372558594 2619.0
206.07225036621094 565.0
207.082763671875 9040.0
208.08969116210938 2262.0
209.09906005859375 907.0
210.0661163330078 123.0
217.06336975097656 1552.0
218.07766723632812 992.0
219.07769775390625 3230.0
220.08836364746094 3176.0
221.0616912841797 3949.0
222.10411071777344 731.0
223.07559204101562 823.0
224.089111328125 292.0
232.05120849609375 448.0
233.05918884277344 4566.0
234.06935119628906 1106.0
235.0795440673828 8380.0
236.0832977294922 9610.0
237.093505859375 875.0
238.10369873046875 339.0
239.10519409179688 252.0
245.0550537109375 358.0
247.07591247558594 2643.0
248.08502197265625 7517.0
249.0541229248047 1933.0
250.10055541992188 1390.0
251.07357788085938 4985.0
253.1279754638672 204.0
260.0832214355469 179.0
262.0581970214844 625.0
263.0678405761719 4441.0
264.0771484375 4879.0
265.08837890625 7278.0
266.0924072265625 766.0
267.1005859375 665.0
275.07421875 289.0
276.08062744140625 800.0
277.0865478515625 4777.0
278.09661865234375 16502.0
279.0733642578125 17067.0
281.11669921875 92.0
282.0987243652344 92.0
293.0789794921875 5080.0
294.0888977050781 12481.0
309.11529541015625 62378.0
340.1540832519531 934.0

Name: Demethyleneberberine
Precursor_mz: 324.1239761
Cas: 25459-91-0
Adduct: [M]+
Mz: 324.1230345
Comment: Major
Smiles: COc1ccc2cc3[n+](cc2c1OC)CCc1cc(O)c(O)cc1-3
Formula: C19H18NO4+
Mix: Alkaloids-pos-mix16
Rt: [2.451]
Rt_apex: 2.449812952
Rt_start: 2.40445
Rt_end: 2.652433333
Ms1_intensity: 2287314
N_scnas: 36
Ms1_scan_range: [655, 662, 692]
Reci_snr: 0.000260478
Ms2_scan_idx: 1141
Pmz_offset: 0.002334023
Entropy: 0.9936727285385132
Num Peaks: 61
150.04612731933594 412.0
165.07481384277344 190.0
176.06106567382812 182.0
177.0624237060547 550.0
189.068603515625 180.0
190.06753540039062 244.0
191.0788116455078 628.0
192.08888244628906 208.0
194.060302734375 181.0
195.06842041015625 180.0
202.068603515625 194.0
203.06927490234375 622.0
204.0824432373047 687.0
205.05995178222656 697.0
206.09820556640625 337.0
208.0692138671875 360.0
209.08665466308594 213.0
210.0902862548828 220.0
213.0767059326172 218.0
216.07595825195312 217.0
217.0817413330078 227.0
219.06500244140625 654.0
220.07562255859375 681.0
222.09130859375 298.0
223.0606689453125 494.0
231.07289123535156 217.0
232.07659912109375 337.0
233.0846405029297 722.0
234.0970001220703 1332.0
235.05992126464844 1034.0
236.0744171142578 2232.0
237.07810974121094 942.0
238.08395385742188 630.0
245.08554077148438 180.0
246.09718322753906 277.0
247.06239318847656 279.0
248.07369995117188 2272.0
249.08041381835938 1268.0
250.0891876220703 5356.0
251.0621795654297 15013.0
252.10391235351562 1291.0
262.0874328613281 4296.0
263.0971374511719 19079.0
264.10650634765625 1693.0
265.0789489746094 21349.0
266.0852355957031 162599.0
274.09490966796875 276.0
277.07220458984375 4505.0
278.0869445800781 5880.0
279.0941467285156 8450.0
280.100830078125 295047.0
281.1069641113281 213.0
291.05206298828125 1076.0
292.0992736816406 68811.0
293.0714416503906 1288.0
294.0789489746094 62535.0
306.0777587890625 86543.0
308.0968017578125 334725.0
309.1051025390625 122901.0
323.1343688964844 397.0
324.12652587890625 167186.0

Name: Liensinine
Precursor_mz: 611.3136795
Cas: 2586-96-1
Adduct: [M+H]+
Mz: 611.3115635
Comment: Major
Smiles: COc1cc2c(cc1OC)[C@@H](Cc1ccc(O)c(Oc3cc4c(cc3OC)CCN(C)[C@@H]4Cc3ccc(O)cc3)c1)N(C)CC2
Formula: C37H42N2O6
Mix: Alkaloids-pos-mix16
Rt: [2.137]
Rt_apex: 2.138228989
Rt_start: 2.042966667
Rt_end: 2.44395
Ms1_intensity: 1623697
N_scnas: 58
Ms1_scan_range: [602, 616, 661]
Reci_snr: 0.003808509
Ms2_scan_idx: 900
Pmz_offset: 0.003427278
Entropy: 0.9227095246315002
Num Peaks: 170
44.05207443237305 1101.0
58.06783676147461 466.0
91.05479431152344 433.0
107.04918670654297 5094.0
115.05450439453125 278.0
117.06980895996094 198.0
119.050537109375 233.0
121.06332397460938 1737.0
123.04783630371094 245.0
131.0491943359375 299.0
132.07937622070312 239.0
133.06341552734375 454.0
135.0799560546875 673.0
137.06399536132812 354.0
144.08164978027344 488.0
145.0721435546875 785.0
146.07791137695312 463.0
147.08035278320312 374.0
148.0759735107422 267.0
149.08351135253906 822.0
150.0703887939453 244.0
151.07606506347656 2103.0
158.07211303710938 1254.0
159.07765197753906 591.0
160.07749938964844 747.0
161.08047485351562 623.0
162.08837890625 1578.0
163.10299682617188 210.0
165.09124755859375 1990.0
173.08163452148438 279.0
174.09115600585938 4792.0
175.0998992919922 2466.0
176.1041259765625 7539.0
177.0887908935547 478.0
178.0874481201172 488.0
188.107177734375 826.0
189.0919952392578 6116.0
190.0890655517578 3005.0
191.09457397460938 3544.0
192.10275268554688 1827.0
193.1077117919922 265.0
194.1192169189453 213.0
195.08238220214844 1508.0
197.10060119628906 275.0
203.10153198242188 240.0
204.09873962402344 1239.0
205.11648559570312 351.0
206.11862182617188 284479.0
207.08482360839844 656.0
209.08895874023438 598.0
210.07022094726562 236.0
218.11708068847656 426.0
219.07774353027344 201.0
220.1342010498047 654.0
221.09930419921875 585.0
223.07981872558594 746.0
224.08285522460938 480.0
225.09024047851562 1571.0
226.0935516357422 219.0
227.10543823242188 274.0
235.07528686523438 1314.0
236.08334350585938 562.0
237.0935516357422 1262.0
238.0994110107422 792.0
239.10740661621094 1949.0
240.11318969726562 2149.0
241.090576171875 536.0
249.09181213378906 289.0
250.098388671875 489.0
251.11587524414062 972.0
252.11314392089844 6592.0
253.12802124023438 626.0
254.09349060058594 688.0
255.11009216308594 1180.0
257.1134033203125 547.0
264.11138916015625 287.0
265.1227111816406 853.0
266.1221923828125 682.0
267.1029357910156 2591.0
268.1107482910156 946.0
269.1227722167969 1644.0
270.12286376953125 735.0
276.125 298.0
279.1109313964844 634.0
280.12939453125 352.0
281.14263916015625 1168.0
282.13177490234375 1792.0
283.1557312011719 2041.0
284.12713623046875 1046.0
285.1120300292969 1167.0
295.1319274902344 241.0
296.1308898925781 1034.0
297.1218566894531 1864.0
298.1435546875 2224.0
299.1281433105469 189.0
308.1316833496094 176.0
310.1500244140625 703.0
311.16168212890625 305.0
312.1650695800781 397.0
328.1515197753906 354.0
339.17132568359375 333.0
343.1319274902344 216.0
360.1358337402344 228.0
361.1459045410156 271.0
362.15203857421875 398.0
371.1376647949219 255.0
372.1576232910156 873.0
373.1626892089844 683.0
374.17999267578125 1379.0
375.16058349609375 378.0
385.1502685546875 171.0
387.1634216308594 668.0
388.1581115722656 359.0
402.17022705078125 359.0
404.1821594238281 571.0
405.19000244140625 1223.0
411.16668701171875 175.0
414.1771545410156 304.0
415.18023681640625 247.0
416.1873779296875 426.0
418.20245361328125 334.0
428.1911315917969 374.0
429.19940185546875 640.0
430.2030029296875 1257.0
431.18157958984375 182.0
442.2169189453125 642.0
443.19427490234375 354.0
444.1993103027344 433.0
446.20098876953125 8769.0
448.21905517578125 607.0
457.2065734863281 242.0
458.1943359375 2788.0
459.1952209472656 189.0
460.2152404785156 2856.0
461.2273254394531 8067.0
462.2224426269531 660.0
471.22674560546875 860.0
472.22344970703125 761.0
473.2425537109375 3567.0
474.2291564941406 4226.0
487.2134094238281 192.0
488.22686767578125 205.0
489.2444763183594 63462.0
491.24554443359375 285.0
503.2621154785156 6240.0
504.2605895996094 2985.0
505.2537536621094 346.0
506.20367431640625 273.0
520.2139892578125 207.0
522.1972045898438 545.0
534.2047119140625 431.0
536.24365234375 587.0
537.228759765625 2899.0
538.227783203125 254.0
548.2562255859375 682.0
549.2359008789062 2241.0
551.2406005859375 234.0
552.2394409179688 586.0
564.2288818359375 314.0
565.24267578125 171.0
566.2640991210938 1452.0
568.2796020507812 20529.0
579.2852172851562 2052.0
580.2719116210938 47058.0
582.2986450195312 756.0
593.3120727539062 489.0
611.3140258789062 625787.0
612.8660278320312 405.0
613.043212890625 164.0
613.1752319335938 224.0

Name: Liensinine
Precursor_mz: 633.2928578
Cas: 2586-96-1
Adduct: [M+Na]+
Mz: 633.2935078
Comment: Major
Smiles: COc1cc2c(cc1OC)[C@@H](Cc1ccc(O)c(Oc3cc4c(cc3OC)CCN(C)[C@@H]4Cc3ccc(O)cc3)c1)N(C)CC2
Formula: C37H42N2O6
Mix: Alkaloids-pos-mix16
Rt: [2.137]
Rt_apex: 2.133386112
Rt_start: 2.098133333
Rt_end: 2.390616667
Ms1_intensity: 16935
N_scnas: 42
Ms1_scan_range: [610, 615, 653]
Reci_snr: 0.014481246
Ms2_scan_idx: 916
Pmz_offset: 0.000322066
Entropy: 0.9999999403953552
Num Peaks: 7
199.05772399902344 171.0
206.12648010253906 92.0
214.08993530273438 154.0
305.10394287109375 154.0
306.11468505859375 176.0
511.2232360839844 1252.0
633.30126953125 1374.0

Name: Mesaconitine
Precursor_mz: 632.3083219
Cas: 2752-64-9
Adduct: [M+H]+
Mz: 632.3065377
Comment: Major
Smiles: COC[C@]12CN(C)[C@@H]3C4[C@H](OC)[C@H]1[C@@]3([C@@H](OC)C[C@H]2O)[C@@H]1C[C@]2(O)[C@@H](OC)[C@H](O)[C@@]4(OC(C)=O)[C@H]1[C@H]2OC(=O)c1ccccc1
Formula: C33H45NO11
Mix: Alkaloids-pos-mix16
Rt: [3.376]
Rt_apex: 3.373505847
Rt_start: 3.297883333
Rt_end: 3.737516667
Ms1_intensity: 13062480
N_scnas: 70
Ms1_scan_range: [788, 800, 859]
Reci_snr: 8.58e-06
Ms2_scan_idx: 1799
Pmz_offset: 0.003481549
Entropy: 0.9111982583999634
Num Peaks: 311
44.050174713134766 3223.0
45.03452682495117 557.0
58.06351089477539 211.0
75.04247283935547 1232.0
77.03958892822266 4020.0
79.05169677734375 210.0
81.06700134277344 220.0
85.02871704101562 651.0
88.07321166992188 420.0
91.05472564697266 880.0
94.06407928466797 935.0
95.05070495605469 203.0
96.08374786376953 516.0
97.06290435791016 305.0
98.06231689453125 313.0
101.05598449707031 201.0
105.03317260742188 69991.0
107.07523345947266 245.0
108.07810974121094 960.0
109.06366729736328 1173.0
111.08074951171875 2772.0
113.0834732055664 312.0
115.05290985107422 541.0
117.0666732788086 899.0
118.06028747558594 343.0
119.04891204833984 244.0
120.08470916748047 505.0
121.06322479248047 809.0
123.04462432861328 377.0
124.07105255126953 276.0
126.08941650390625 661.0
128.10818481445312 1204.0
129.06936645507812 1147.0
131.0812225341797 961.0
132.07766723632812 396.0
133.02931213378906 310.0
134.09974670410156 378.0
135.07984924316406 474.0
137.06224060058594 1658.0
138.0910186767578 1707.0
140.10861206054688 392.0
141.08871459960938 1125.0
143.07931518554688 185.0
144.08322143554688 340.0
145.0618896484375 333.0
146.09475708007812 319.0
147.0768280029297 720.0
148.0707244873047 304.0
149.0594024658203 250.0
150.0891876220703 237.0
153.06956481933594 455.0
155.083251953125 571.0
157.06613159179688 321.0
158.09317016601562 590.0
159.0828399658203 858.0
160.07382202148438 3186.0
161.09815979003906 596.0
163.07777404785156 297.0
164.1080780029297 381.0
165.06948852539062 845.0
166.0771026611328 169.0
167.08416748046875 624.0
168.10336303710938 188.0
169.07090759277344 318.0
170.0943145751953 594.0
171.08041381835938 734.0
172.11172485351562 1576.0
173.0925750732422 403.0
174.0576934814453 1013.0
176.068603515625 672.0
177.0494384765625 423.0
178.07606506347656 496.0
179.08689880371094 879.0
181.1020050048828 447.0
182.09864807128906 272.0
183.0790252685547 366.0
185.0992431640625 440.0
186.0914764404297 225.0
187.07485961914062 279.0
188.07044982910156 867.0
189.076416015625 568.0
190.07537841796875 504.0
191.08279418945312 773.0
192.09481811523438 348.0
193.10171508789062 1120.0
194.08973693847656 182.0
195.08615112304688 474.0
196.11264038085938 268.0
197.09649658203125 562.0
198.0887451171875 409.0
199.0716094970703 548.0
200.10653686523438 310.0
201.09637451171875 589.0
202.12057495117188 847.0
203.0813751220703 824.0
204.14068603515625 3052.0
205.1022491455078 3053.0
206.08421325683594 253.0
207.07859802246094 616.0
208.08349609375 242.0
209.10096740722656 1046.0
210.09243774414062 281.0
211.1127471923828 479.0
212.11306762695312 323.0
213.089111328125 345.0
214.12693786621094 323.0
215.08908081054688 705.0
216.10081481933594 191.0
217.098388671875 1547.0
218.07337951660156 394.0
219.08587646484375 629.0
220.10072326660156 375.0
221.10121154785156 1082.0
222.15206909179688 386.0
223.111083984375 1309.0
224.11839294433594 214.0
225.08795166015625 638.0
227.1010284423828 271.0
228.14060974121094 253.0
229.09970092773438 354.0
231.0922088623047 290.0
232.08740234375 224.0
233.09547424316406 3403.0
234.1035614013672 563.0
235.10952758789062 1788.0
236.10472106933594 278.0
237.0890350341797 815.0
238.12088012695312 477.0
239.1050567626953 610.0
241.125244140625 356.0
242.1156005859375 208.0
243.0795440673828 424.0
245.09884643554688 821.0
246.13034057617188 246.0
247.1022186279297 932.0
248.14234924316406 463.0
249.1292724609375 1093.0
250.11593627929688 475.0
251.10899353027344 2204.0
252.137451171875 307.0
253.12782287597656 523.0
254.12013244628906 226.0
255.10316467285156 260.0
256.13751220703125 172.0
257.10418701171875 245.0
258.1268005371094 250.0
259.10626220703125 1068.0
261.0956726074219 2618.0
262.1239318847656 456.0
263.10638427734375 1672.0
264.1408386230469 318.0
265.117919921875 2231.0
266.1517639160156 248.0
267.1394348144531 372.0
268.13580322265625 323.0
269.11566162109375 599.0
271.1060791015625 235.0
273.0992126464844 442.0
274.1229248046875 177.0
275.10662841796875 699.0
276.13409423828125 856.0
277.1307678222656 519.0
278.1221923828125 387.0
279.1107177734375 1586.0
280.1385498046875 320.0
281.11651611328125 603.0
282.1480712890625 772.0
283.1413269042969 474.0
284.1600036621094 249.0
285.12127685546875 292.0
287.1152648925781 174.0
291.1264343261719 487.0
292.13299560546875 1051.0
293.11724853515625 3909.0
294.1488952636719 890.0
295.1317138671875 815.0
296.09442138671875 326.0
297.14337158203125 400.0
298.18206787109375 230.0
304.1413879394531 1741.0
305.1162414550781 331.0
306.14666748046875 192.0
307.129638671875 497.0
308.1609802246094 844.0
309.1471862792969 435.0
310.139892578125 920.0
311.1268005371094 1060.0
312.1896057128906 412.0
314.181396484375 186.0
318.15142822265625 212.0
322.1438903808594 929.0
323.126953125 571.0
324.1595458984375 428.0
325.140625 2205.0
326.17388916015625 2858.0
327.1605529785156 395.0
328.1537780761719 262.0
330.21875 351.0
336.1642150878906 7449.0
337.13751220703125 212.0
340.19268798828125 3246.0
342.1705017089844 619.0
343.1472473144531 257.0
344.19830322265625 174.0
350.1837158203125 289.0
352.1613464355469 231.0
353.0889587402344 241.0
354.1736145019531 83073.0
355.16204833984375 559.0
356.19158935546875 315.0
357.1722412109375 1441.0
358.2046813964844 2864.0
359.124267578125 208.0
360.17816162109375 380.0
362.2398681640625 1293.0
368.1855773925781 1983.0
369.1529235839844 185.0
370.1728515625 189.0
372.2196044921875 1128.0
374.18511962890625 264.0
378.2080993652344 208.0
380.2139587402344 247.0
382.2059631347656 175.0
383.131103515625 367.0
384.1811218261719 172.0
386.1972351074219 2609.0
387.1796569824219 292.0
388.1661071777344 303.0
390.22589111328125 6539.0
392.2049865722656 177.0
400.2078857421875 1204.0
402.20086669921875 227.0
404.20440673828125 845.0
414.17681884765625 510.0
415.16845703125 546.0
416.1841735839844 576.0
418.2193298339844 1376.0
419.2014465332031 382.0
420.1990661621094 523.0
422.2065124511719 268.0
426.16912841796875 543.0
430.20849609375 907.0
432.1900939941406 592.0
433.15631103515625 192.0
434.19671630859375 414.0
436.2050476074219 168.0
444.1900939941406 1070.0
446.2065734863281 675.0
447.18536376953125 1117.0
448.2127380371094 2064.0
450.18768310546875 210.0
452.2147216796875 273.0
458.2030029296875 3093.0
460.2088317871094 265.0
462.2281188964844 9016.0
464.2125244140625 2366.0
466.2193298339844 576.0
472.20477294921875 222.0
476.2050476074219 4549.0
478.2253112792969 583.0
479.2232360839844 392.0
480.2375793457031 14895.0
482.22015380859375 422.0
490.2254638671875 17560.0
492.2472229003906 463.0
494.2481689453125 3532.0
496.2375183105469 4575.0
504.24444580078125 204.0
507.2046813964844 879.0
508.23553466796875 29246.0
512.2677612304688 71564.0
518.2182006835938 171.0
522.2512817382812 56937.0
536.2399291992188 315.0
540.2576293945312 110495.0
541.2463989257812 705.0
550.2423095703125 2364.0
554.2789306640625 10589.0
568.2523803710938 1528.0
572.2906494140625 798500.0
574.091552734375 327.0
582.2744750976562 34999.0
600.2882080078125 16408.0
614.3046875 3677.0
631.3534545898438 240.0
632.3129272460938 1067430.0
633.6263427734375 6579.0
633.788818359375 7749.0
634.2022705078125 1456.0
634.3436279296875 640.0
634.4638061523438 233.0
634.7360229492188 462.0
634.8668823242188 288.0
634.9976806640625 183.0
635.407958984375 206.0
635.5317993164062 182.0
635.6556396484375 195.0
635.931640625 258.0
636.0661010742188 264.0
636.1864624023438 234.0
636.3209838867188 241.0
636.6041870117188 188.0
636.731689453125 216.0
636.9264526367188 163.0
637.1283569335938 198.0
637.6456298828125 362.0
638.8084716796875 183.0
639.51806640625 162.0
639.656494140625 189.0
640.7288208007812 155.0
641.1978149414062 164.0

Name: 3-Deoxyaconitine
Precursor_mz: 630.3291606
Cas: 3175-95-9
Adduct: [M+H]+
Mz: 630.3272732
Comment: Major
Smiles: CCN1C[C@]2(COC)CC[C@H](OC)[C@]34C1[C@H]([C@H](OC)[C@H]23)[C@@]1(OC(C)=O)[C@@H](O)[C@H](OC)[C@@]2(O)C[C@@H]4[C@@H]1[C@H]2OC(=O)c1ccccc1
Formula: C34H47NO10
Mix: Alkaloids-pos-mix16
Rt: [3.764]
Rt_apex: 3.766463546
Rt_start: 3.709516667
Rt_end: 4.399966667
Ms1_intensity: 23774631
N_scnas: 125
Ms1_scan_range: [855, 865, 981]
Reci_snr: 2.3e-05
Ms2_scan_idx: 2068
Pmz_offset: 0.00236621
Entropy: 0.9387578368186951
Num Peaks: 382
44.05017852783203 273.0
45.03358840942383 682.0
51.02360916137695 219.0
56.0484733581543 972.0
58.06565475463867 7949.0
70.06690216064453 381.0
71.04765319824219 709.0
72.07929992675781 830.0
75.04369354248047 797.0
77.0371322631836 5166.0
79.0529556274414 286.0
80.0455093383789 175.0
82.06319427490234 175.0
84.07896423339844 462.0
85.02871704101562 577.0
87.04501342773438 180.0
88.07980346679688 446.0
91.05472564697266 1383.0
93.07177734375 286.0
94.06136322021484 201.0
95.04798126220703 200.0
96.0823745727539 345.0
97.06291198730469 222.0
98.0956802368164 1184.0
100.0722885131836 188.0
102.09130096435547 7940.0
103.05208587646484 209.0
105.0331802368164 107433.0
107.04765319824219 754.0
108.08248901367188 3750.0
109.06074523925781 939.0
110.09493255615234 509.0
114.09005737304688 476.0
115.0514144897461 792.0
117.06971740722656 1467.0
118.06182098388672 248.0
119.05044555664062 506.0
121.05860137939453 426.0
122.0953369140625 1692.0
123.0788803100586 694.0
124.11170196533203 740.0
127.05409240722656 250.0
128.10342407226562 1602.0
129.0709686279297 1295.0
131.0828399658203 2421.0
132.07928466796875 211.0
133.10540771484375 481.0
134.0916290283203 415.0
135.07333374023438 356.0
136.11099243164062 433.0
137.0573272705078 420.0
138.09597778320312 246.0
140.10694885253906 1079.0
141.0687255859375 1011.0
142.08395385742188 272.0
143.0826873779297 1141.0
145.1007843017578 390.0
146.03880310058594 654.0
147.0445098876953 2878.0
148.11172485351562 562.0
149.09539794921875 650.0
150.08920288085938 222.0
152.10401916503906 1235.0
153.06263732910156 620.0
154.12355041503906 3271.0
155.0850067138672 1067.0
157.0942840576172 386.0
158.09141540527344 549.0
159.08106994628906 417.0
160.11111450195312 1318.0
161.09994506835938 358.0
162.0900421142578 754.0
163.11363220214844 257.0
165.06768798828125 859.0
166.07711791992188 259.0
167.08779907226562 1450.0
168.137939453125 920.0
169.0946502685547 466.0
171.08042907714844 423.0
172.10989379882812 815.0
173.09442138671875 818.0
174.12806701660156 986.0
175.11463928222656 440.0
176.11329650878906 204.0
177.0513153076172 615.0
178.11915588378906 666.0
179.08314514160156 1211.0
180.14013671875 270.0
181.10012817382812 1065.0
183.0809326171875 592.0
184.10964965820312 634.0
185.0973358154297 457.0
186.12977600097656 1443.0
187.08062744140625 241.0
188.0723876953125 896.0
189.08221435546875 492.0
190.08505249023438 1212.0
191.0808563232422 819.0
192.09677124023438 659.0
193.10171508789062 1352.0
194.0721435546875 225.0
195.07440185546875 471.0
196.1165771484375 235.0
197.09454345703125 487.0
198.13221740722656 502.0
199.1151885986328 439.0
200.14625549316406 869.0
201.0924072265625 410.0
202.0786895751953 724.0
203.08938598632812 1728.0
204.1046142578125 1955.0
205.10226440429688 985.0
206.1587677001953 439.0
207.11497497558594 1685.0
209.09893798828125 902.0
210.12498474121094 381.0
211.0740203857422 431.0
212.1396484375 367.0
213.09117126464844 393.0
215.0911407470703 419.0
216.14002990722656 335.0
217.1004638671875 1156.0
218.1604461669922 417.0
219.11497497558594 1461.0
220.1673583984375 1818.0
221.10330200195312 920.0
222.12698364257812 206.0
223.1090087890625 814.0
224.14151000976562 383.0
225.09217834472656 448.0
226.1271514892578 274.0
227.1158447265625 478.0
228.093994140625 386.0
229.10397338867188 743.0
230.1544952392578 227.0
231.1007537841797 543.0
232.09597778320312 269.0
233.09547424316406 1035.0
234.10357666015625 517.0
235.11599731445312 2549.0
236.15432739257812 313.0
237.12579345703125 1099.0
238.1273956298828 450.0
239.111572265625 510.0
240.14346313476562 206.0
241.1121826171875 223.0
244.17257690429688 585.0
245.17794799804688 446.0
246.18319702148438 231.0
247.11326599121094 1806.0
248.0848846435547 547.0
249.12486267089844 1410.0
250.16700744628906 736.0
251.1045684814453 797.0
252.1307830810547 318.0
253.13006591796875 477.0
255.13681030273438 238.0
257.09295654296875 400.0
259.1153259277344 298.0
260.080810546875 205.0
261.12744140625 582.0
262.09893798828125 390.0
263.1086730957031 8106.0
264.13629150390625 433.0
265.1247863769531 1592.0
266.1609191894531 317.0
267.132568359375 941.0
268.1634216308594 253.0
269.12255859375 281.0
274.15081787109375 245.0
275.1089782714844 1695.0
276.19476318359375 590.0
277.1260986328125 1439.0
278.1502990722656 727.0
279.1365051269531 1180.0
280.166748046875 335.0
281.1330261230469 518.0
282.1881408691406 299.0
283.1460876464844 288.0
284.1671447753906 354.0
289.1400451660156 269.0
290.15032958984375 313.0
291.12884521484375 282.0
292.17138671875 1996.0
293.1220703125 372.0
294.1609191894531 452.0
295.1317138671875 2876.0
296.1693115234375 1120.0
297.1506652832031 371.0
298.1820983886719 440.0
306.1491394042969 485.0
307.1567077636719 2266.0
308.1708679199219 1211.0
309.1521301269531 473.0
310.1794738769531 995.0
311.16888427734375 566.0
312.1946105957031 454.0
313.1698303222656 238.0
314.1714782714844 220.0
316.1870422363281 581.0
320.16717529296875 3100.0
321.1396789550781 359.0
322.1716003417969 294.0
323.1597595214844 226.0
324.1949462890625 13724.0
325.1482238769531 233.0
326.1764221191406 335.0
327.17071533203125 305.0
328.2326354980469 6845.0
334.1807861328125 271.0
337.15814208984375 268.0
338.16644287109375 458.0
339.1555480957031 384.0
340.1849365234375 593.0
341.1640625 211.0
342.20428466796875 347.0
346.2007751464844 865.0
351.1034851074219 616.0
352.1929931640625 363778.0
353.20501708984375 636.0
354.2079772949219 442.0
355.1356201171875 337.0
356.223388671875 63631.0
357.1510314941406 187.0
358.2020568847656 479.0
359.126953125 183.0
360.25543212890625 4545.0
366.2063903808594 704.0
369.1960754394531 264.0
370.20526123046875 1547.0
371.13739013671875 334.0
372.2196044921875 252.0
378.2299499511719 540.0
384.21966552734375 8511.0
385.1472473144531 617.0
386.224853515625 587.0
388.2435607910156 27185.0
390.23699951171875 887.0
394.2448425292969 199.0
397.15087890625 502.0
398.23114013671875 1538.0
399.16424560546875 232.0
400.2107238769531 389.0
401.1995544433594 240.0
402.223388671875 1956.0
404.19879150390625 234.0
408.2179260253906 259.0
414.2139892578125 733.0
416.2471923828125 5376.0
417.1696472167969 307.0
418.213623046875 623.0
420.1961975097656 167.0
428.1820983886719 279.0
429.181640625 622.0
430.2667236328125 631.0
431.1958312988281 229.0
432.2251281738281 481.0
433.2381286621094 287.0
436.2197265625 203.0
442.20477294921875 1313.0
444.2256164550781 343.0
446.2332763671875 8615.0
448.26922607421875 629.0
449.18780517578125 203.0
450.2353515625 375.0
456.2285461425781 184.0
460.21490478515625 494.0
461.202880859375 596.0
462.2462463378906 557.0
464.2306823730469 243.0
466.2193603515625 183.0
474.2257385253906 16880.0
476.2479553222656 365.0
478.25604248046875 99557.0
488.2296142578125 419.0
492.26593017578125 824.0
493.240966796875 484.0
506.2569885253906 98714.0
508.28302001953125 321.0
510.2845764160156 269980.0
520.26806640625 991.0
524.2705078125 505.0
538.2827758789062 647691.0
540.0260620117188 265.0
552.3082885742188 477.0
568.2892456054688 288.0
570.3082885742188 1055405.0
571.32421875 190.0
572.2403564453125 236.0
586.2942504882812 187.0
598.2991333007812 106602.0
629.38037109375 270.0
629.6268310546875 208.0
629.74658203125 298.0
629.9508056640625 271.0
630.0670776367188 202.0
630.3348388671875 1061108.0
631.6497192382812 9325.0
631.7943115234375 14037.0
631.900146484375 1751.0
632.2177124023438 1786.0
632.3623657226562 666.0
632.4823608398438 318.0
632.6058959960938 167.0
632.7506103515625 673.0
632.8883056640625 393.0
633.029541015625 261.0
633.1460571289062 313.0
633.4144287109375 484.0
633.5486450195312 370.0
633.6934814453125 533.0
633.9407958984375 359.0
634.07861328125 449.0
634.2305908203125 237.0
634.3507690429688 427.0
634.619384765625 338.0
634.736083984375 298.0
634.8633422851562 309.0
635.0224609375 265.0
635.1427612304688 316.0
635.4257202148438 219.0
635.6309204101562 273.0
635.765380859375 334.0
635.9104614257812 217.0
636.122802734375 300.0
636.306884765625 266.0
636.476806640625 287.0
636.5865478515625 239.0
636.7600708007812 336.0
636.8662719726562 219.0
636.997314453125 190.0
637.2594604492188 276.0
637.3870239257812 212.0
637.5110473632812 163.0
637.8937377929688 241.0
638.003662109375 230.0
638.1348266601562 262.0
638.492919921875 215.0
638.641845703125 236.0
638.7801513671875 173.0
638.9078369140625 190.0
639.0284423828125 207.0
639.2661743164062 173.0
639.5394287109375 216.0
640.3275146484375 178.0
640.8319091796875 210.0
641.16943359375 195.0
641.4608764648438 188.0
641.5675048828125 252.0
641.9443359375 283.0
642.1328125 208.0
642.3497314453125 167.0
642.5133666992188 186.0
642.876220703125 211.0
643.0399169921875 191.0
643.271240234375 178.0
643.833740234375 176.0
644.1044311523438 164.0
645.4086303710938 172.0
645.6367797851562 176.0
645.8364868164062 261.0
646.3323364257812 203.0
646.6998901367188 184.0
647.356689453125 165.0
648.0245361328125 205.0
649.1074829101562 222.0
650.20556640625 162.0
650.6099853515625 162.0
651.5302734375 122.0
651.7667236328125 193.0
653.5880126953125 191.0
654.32373046875 180.0
655.3974609375 162.0
658.3864135742188 200.0
659.730224609375 191.0
660.5667724609375 165.0
661.1331176757812 163.0
663.01806640625 161.0
663.16259765625 164.0
665.4811401367188 161.0
665.6549072265625 161.0
668.6961669921875 238.0

Name: Chelerythrine
Precursor_mz: 348.1227371
Cas: 34316-15-9
Adduct: [M]+
Mz: 348.1230345
Comment: Major
Smiles: COc1ccc2c(c[n+](C)c3c4cc5c(cc4ccc23)OCO5)c1OC
Formula: C21H18NO4+
Mix: Alkaloids-pos-mix16
Rt: [3.115]
Rt_apex: 3.112034322
Rt_start: 3.068233333
Rt_end: 3.475866667
Ms1_intensity: 2207541
N_scnas: 62
Ms1_scan_range: [754, 760, 817]
Reci_snr: 0.000788069
Ms2_scan_idx: 1634
Pmz_offset: 0.001251575
Entropy: 0.9974199533462524
Num Peaks: 73
151.04998779296875 178.0
152.06065368652344 154.0
175.05882263183594 154.0
176.06105041503906 675.0
177.06800842285156 190.0
188.06072998046875 229.0
189.066650390625 559.0
190.0617218017578 359.0
191.0768585205078 563.0
201.06640625 424.0
202.06459045410156 789.0
203.07325744628906 1082.0
204.08644104003906 3433.0
205.08404541015625 288.0
206.0981903076172 460.0
214.06521606445312 955.0
215.0704345703125 616.0
216.0841827392578 1454.0
217.08792114257812 1911.0
218.09812927246094 3084.0
219.0712127685547 260.0
227.06918334960938 227.0
228.0811309814453 1504.0
229.09107971191406 917.0
230.0968780517578 1389.0
231.07713317871094 415.0
232.0765838623047 17313.0
233.08676147460938 1860.0
234.0926971435547 2276.0
242.05868530273438 231.0
244.07814025878906 1859.0
245.0855255126953 643.0
246.090576171875 12380.0
247.10208129882812 1719.0
248.1090545654297 1995.0
256.0722351074219 872.0
257.0882873535156 915.0
258.09283447265625 1250.0
259.0722351074219 520.0
260.07159423828125 9040.0
261.07513427734375 1564.0
262.0828857421875 2625.0
272.0703430175781 3771.0
273.07586669921875 446.0
274.0879211425781 12299.0
275.07623291015625 6464.0
276.1082763671875 2816.0
285.0832214355469 214.0
286.0887451171875 4844.0
287.0960693359375 13575.0
288.10516357421875 4575.0
289.0778503417969 6380.0
290.0832214355469 193640.0
300.0702209472656 404.0
301.0726318359375 948.0
302.0815734863281 6442.0
303.0921936035156 12781.0
304.099609375 233841.0
305.1136169433594 718.0
314.084228515625 3880.0
315.0898132324219 15477.0
316.0920104980469 24087.0
317.0733337402344 4409.0
318.07867431640625 141918.0
319.0780944824219 154.0
330.08087158203125 45324.0
332.0955810546875 411364.0
333.1014099121094 151580.0
347.054931640625 554.0
348.12506103515625 345435.0
349.13385009765625 227.0
349.3357849121094 182.0
349.53253173828125 169.0

Name: Coptisine
Precursor_mz: 320.0920698
Cas: 3486-66-6
Adduct: [M]+
Mz: 320.0917344
Comment: Major
Smiles: c1c2c(cc3c1OCO3)-c1cc3ccc4c(c3c[n+]1CC2)OCO4
Formula: C19H14NO4+
Mix: Alkaloids-pos-mix17
Rt: [2.662]
Rt_apex: 2.660810972
Rt_start: 2.621383333
Rt_end: 2.9427
Ms1_intensity: 3398194
N_scnas: 48
Ms1_scan_range: [663, 669, 712]
Reci_snr: 0.001196876
Ms2_scan_idx: 1374
Pmz_offset: 0.00100911
Entropy: 0.9961543679237366
Num Peaks: 102
103.05490112304688 212.0
115.05589294433594 239.0
116.04850769042969 331.0
127.0524673461914 188.0
128.0525665283203 226.0
131.04745483398438 327.0
133.05194091796875 366.0
140.0487823486328 209.0
144.04444885253906 251.0
150.04617309570312 397.0
151.05348205566406 1489.0
152.06243896484375 261.0
154.06776428222656 170.0
158.05960083007812 284.0
159.0474090576172 181.0
162.047119140625 191.0
163.0508575439453 269.0
164.05770874023438 437.0
165.06944274902344 691.0
166.0770721435547 183.0
167.07687377929688 271.0
170.05767822265625 175.0
175.05331420898438 305.0
176.0592498779297 3820.0
177.07180786132812 2364.0
178.07603454589844 2212.0
179.08685302734375 1345.0
180.08358764648438 240.0
181.06231689453125 318.0
183.06759643554688 803.0
187.05563354492188 188.0
188.0473175048828 306.0
189.06478881835938 1748.0
190.06759643554688 1926.0
191.07110595703125 8473.0
192.08505249023438 1444.0
195.06651306152344 572.0
201.0625 359.0
202.06666564941406 2682.0
203.07333374023438 9712.0
204.08250427246094 86901.0
205.088134765625 9647.0
206.09423828125 6513.0
207.07452392578125 1039.0
208.07737731933594 196.0
214.06735229492188 268.0
215.0705108642578 914.0
216.08221435546875 2655.0
217.09007263183594 3392.0
218.0567626953125 835.0
219.0692138671875 33101.0
220.07777404785156 18919.0
221.08238220214844 5708.0
222.09556579589844 264.0
223.06494140625 284.0
231.07083129882812 1315.0
232.0788116455078 33852.0
233.084716796875 65871.0
234.09278869628906 112038.0
235.09872436523438 4650.0
236.10897827148438 6962.0
238.08834838867188 173.0
244.07823181152344 770.0
245.0460662841797 367.0
246.09286499023438 4104.0
247.06468200683594 39441.0
248.07156372070312 41815.0
249.08050537109375 90710.0
250.0825958251953 407.0
259.06103515625 537.0
260.0739440917969 9155.0
261.08203125 17885.0
262.0875244140625 230972.0
263.0994873046875 16114.0
264.10430908203125 44076.0
273.05511474609375 202.0
274.0880126953125 3264.0
275.06005859375 10876.0
276.0687561035156 8975.0
277.07696533203125 196527.0
278.0846862792969 368.0
288.0671691894531 4535.0
289.07318115234375 268.0
290.0833435058594 127115.0
291.0904846191406 12708.0
292.099365234375 498080.0
303.05810546875 3217.0
304.0605773925781 293.0
305.0696105957031 11617.0
308.0968933105469 197.0
316.0697021484375 234.0
318.07879638671875 120062.0
319.1133117675781 2921.0
320.0942687988281 1102998.0
321.02392578125 2173.0
321.1396179199219 1864.0
321.44146728515625 639.0
321.54461669921875 348.0
321.81646728515625 170.0
322.11358642578125 226.0
323.11932373046875 194.0
323.5104675292969 167.0

Name: Palmatine
Precursor_mz: 352.1543955
Cas: 3486-67-7
Adduct: [M]+
Mz: 352.1543346
Comment: Major
Smiles: COc1cc2c(cc1OC)-c1cc3ccc(OC)c(OC)c3c[n+]1CC2
Formula: C21H22NO4+
Mix: Alkaloids-pos-mix17
Rt: [2.947]
Rt_apex: 2.944434677
Rt_start: 2.878366667
Rt_end: 5.78625
Ms1_intensity: 7222801
N_scnas: 631
Ms1_scan_range: [702, 712, 1334]
Reci_snr: 0.000263455
Ms2_scan_idx: 1600
Pmz_offset: 0.000642845
Entropy: 0.992189884185791
Num Peaks: 84
151.05332946777344 335.0
176.06092834472656 216.0
178.068359375 250.0
190.0654754638672 276.0
191.07867431640625 674.0
192.0770721435547 229.0
202.06846618652344 231.0
203.07113647460938 496.0
204.0843048095703 987.0
205.0557861328125 329.0
206.10008239746094 321.0
207.06422424316406 169.0
208.083251953125 180.0
216.07992553710938 423.0
217.0919189453125 661.0
218.10006713867188 812.0
219.06900024414062 528.0
220.0775604248047 2674.0
221.08425903320312 1139.0
222.0953369140625 329.0
228.08734130859375 189.0
230.0946044921875 320.0
231.07913208007812 183.0
232.07858276367188 1138.0
233.0866241455078 9052.0
234.09469604492188 4120.0
235.09849548339844 6497.0
236.07640075683594 452.0
241.10971069335938 555.0
245.0809783935547 200.0
246.09481811523438 4547.0
247.10414123535156 8725.0
248.0735321044922 1612.0
249.07803344726562 6515.0
250.0912322998047 28001.0
251.05532836914062 431.0
258.0881652832031 220.0
259.10369873046875 2521.0
260.0736999511719 857.0
261.081787109375 2259.0
262.08953857421875 9174.0
263.0992431640625 22313.0
264.1063232421875 38465.0
266.0758972167969 322.0
272.0817565917969 206.0
273.0826721191406 656.0
274.0924072265625 1133.0
275.0993347167969 31100.0
276.10345458984375 18795.0
277.08135986328125 1917.0
278.08441162109375 148596.0
279.0939636230469 43597.0
280.1311950683594 541.0
287.09588623046875 205.0
288.10498046875 570.0
289.0728759765625 735.0
290.0806579589844 8499.0
291.1260986328125 36437.0
292.09906005859375 299659.0
293.10968017578125 44981.0
294.1148376464844 422843.0
302.0813903808594 682.0
303.0895690917969 430.0
304.09942626953125 64947.0
305.1085205078125 11278.0
306.0849304199219 8749.0
308.133544921875 579721.0
309.1172180175781 529.0
318.08349609375 23559.0
319.0904235839844 2587.0
320.10150146484375 277736.0
321.1065979003906 86754.0
322.1107482910156 333675.0
334.1111145019531 46879.0
336.1329345703125 798746.0
337.13970947265625 392238.0
351.0767822265625 2403.0
352.16357421875 570571.0
353.1333923339844 1428.0
353.2599792480469 1253.0
353.3602294921875 450.0
353.5712890625 531.0
353.6768493652344 212.0
353.9698791503906 194.0

Name: Columbamine
Precursor_mz: 338.1401071
Cas: 3621-36-1
Adduct: [M]+
Mz: 338.1386845
Comment: Major
Smiles: COc1cc2c(cc1O)-c1cc3ccc(OC)c(OC)c3c[n+]1CC2
Formula: C20H20NO4+
Mix: Alkaloids-pos-mix17
Rt: [2.669]
Rt_apex: 2.66282091
Rt_start: 2.621383333
Rt_end: 2.9362
Ms1_intensity: 3560064
N_scnas: 47
Ms1_scan_range: [663, 669, 711]
Reci_snr: 0.000665659
Ms2_scan_idx: 1381
Pmz_offset: 0.003220209
Entropy: 0.9990414977073669
Num Peaks: 63
165.06234741210938 202.0
178.06304931640625 286.0
180.08370971679688 187.0
190.0657958984375 225.0
191.06930541992188 971.0
192.08712768554688 184.0
204.07862854003906 394.0
207.07061767578125 408.0
208.07550048828125 857.0
209.08685302734375 252.0
216.0823516845703 246.0
219.07144165039062 540.0
220.0779266357422 1305.0
221.08462524414062 655.0
222.09361267089844 7751.0
223.09861755371094 754.0
224.10589599609375 451.0
227.10113525390625 525.0
232.0768280029297 481.0
233.08058166503906 1093.0
234.0929412841797 3066.0
235.06015014648438 344.0
236.07247924804688 12247.0
237.07835388183594 18440.0
246.0908203125 221.0
248.07615661621094 642.0
249.0784454345703 911.0
250.0894317626953 31013.0
251.0957794189453 30330.0
252.09970092773438 936.0
260.0741271972656 200.0
261.08447265625 451.0
262.08770751953125 19594.0
263.0951232910156 6475.0
264.0725402832031 2109.0
265.0769348144531 155506.0
266.1198425292969 573.0
276.0666198730469 2615.0
277.1122131347656 21383.0
278.0825500488281 19848.0
279.09210205078125 325934.0
280.0987548828125 274041.0
290.0859375 790.0
291.09307861328125 44398.0
292.06597900390625 788.0
293.1005859375 8783.0
294.1153259277344 386905.0
295.1221923828125 1019.0
304.058349609375 362.0
305.06982421875 18179.0
306.1148986816406 113085.0
307.0879821777344 242293.0
308.0946350097656 245412.0
320.0970153808594 22159.0
321.1121520996094 1143.0
322.1087646484375 626323.0
323.1170349121094 430077.0
337.0990295410156 1495.0
338.1407775878906 579254.0
339.0910949707031 548.0
339.30303955078125 393.0
339.525390625 303.0
340.0142822265625 168.0

Name: Cephaeline hydrochloride
Precursor_mz: 467.2913045
Cas: 3738-70-3
Adduct: [M+H]+
Mz: 467.2904342
Comment: Major
Smiles: CC[C@H]1CN2CCc3cc(OC)c(OC)cc3[C@@H]2C[C@@H]1C[C@H]1NCCc2cc(O)c(OC)cc21
Formula: C28H38N2O4
Mix: Alkaloids-pos-mix17
Rt: [1.83]
Rt_apex: 1.826065901
Rt_start: 1.7779
Rt_end: 2.054266667
Ms1_intensity: 1835461
N_scnas: 40
Ms1_scan_range: [538, 545, 579]
Reci_snr: 0.002679133
Ms2_scan_idx: 749
Pmz_offset: 0.002613985
Entropy: 0.9626032710075378
Num Peaks: 133
55.05470657348633 786.0
82.0643081665039 197.0
84.08137512207031 466.0
91.050537109375 605.0
93.06753540039062 338.0
95.08610534667969 270.0
103.05615997314453 1392.0
105.06893920898438 1115.0
107.04744720458984 232.0
108.08082580566406 273.0
110.09619903564453 485.0
115.05419921875 343.0
117.06797790527344 468.0
118.06311798095703 230.0
119.04869079589844 336.0
120.07987213134766 832.0
121.06454467773438 698.0
122.09820556640625 253.0
124.10990142822266 185.0
128.0587158203125 271.0
129.06912231445312 321.0
131.04884338378906 2866.0
133.06468200683594 718.0
134.07186889648438 215.0
135.0812225341797 1928.0
136.1156463623047 235.0
137.06199645996094 1660.0
143.0874481201172 193.0
145.06163024902344 977.0
146.06057739257812 668.0
147.0646514892578 496.0
148.07728576660156 1596.0
149.0574188232422 341.0
150.06655883789062 1418.0
151.07566833496094 7424.0
155.08297729492188 213.0
157.06056213378906 260.0
158.0752410888672 219.0
159.07723999023438 669.0
160.08773803710938 1940.0
161.0818328857422 528.0
162.07008361816406 484.0
163.07748413085938 6306.0
164.07901000976562 527.0
165.0908203125 10669.0
171.07827758789062 282.0
172.08563232421875 181.0
173.08856201171875 245.0
174.09255981445312 582.0
175.07530212402344 1510.0
176.0850372314453 2274.0
177.09019470214844 2362.0
178.08511352539062 2125.0
179.1034698486328 1406.0
180.10214233398438 10346.0
183.1204833984375 201.0
185.12371826171875 533.0
186.0911407470703 236.0
187.078369140625 957.0
188.0816650390625 549.0
189.087646484375 2445.0
190.08470153808594 5319.0
191.107666015625 5853.0
192.1022491455078 13280.0
193.124755859375 565.0
194.12066650390625 254.0
199.10887145996094 310.0
200.1002197265625 179.0
201.09402465820312 840.0
202.12619018554688 884.0
203.1070098876953 1498.0
204.1002197265625 1257.0
205.10791015625 5890.0
206.1180877685547 6892.0
211.1123809814453 690.0
212.1085968017578 245.0
213.11331176757812 272.0
214.12039184570312 833.0
215.10516357421875 480.0
216.1024932861328 388.0
217.12281799316406 545.0
218.11651611328125 1449.0
219.13534545898438 195.0
220.13571166992188 3849.0
222.1537628173828 271.0
226.12884521484375 322.0
228.0999298095703 707.0
229.12266540527344 365.0
230.11575317382812 4274.0
231.1216583251953 1972.0
232.13189697265625 576.0
234.15252685546875 215.0
240.1343231201172 268.0
242.1173553466797 975.0
243.13600158691406 1393.0
244.13485717773438 4324.0
245.14674377441406 484.0
246.14971923828125 136889.0
248.16622924804688 581.0
254.12191772460938 176.0
255.13409423828125 177.0
256.132568359375 1776.0
257.1510009765625 853.0
258.1488952636719 4219.0
259.1554870605469 548.0
260.16632080078125 3616.0
269.1520080566406 207.0
270.1544494628906 2015.0
271.1495056152344 220.0
272.1649169921875 10979.0
273.1706237792969 228.0
274.182861328125 40821.0
284.1666259765625 1089.0
285.17529296875 515.0
286.1809997558594 5016.0
288.1953430175781 3127.0
289.1920166015625 359.0
298.17669677734375 499.0
300.19873046875 1391.0
406.19805908203125 394.0
418.23583984375 363.0
421.2518615722656 265.0
422.234619140625 10608.0
434.2339782714844 1078.0
435.2551574707031 1077.0
436.2570495605469 265.0
437.2366027832031 584.0
438.2613220214844 536.0
448.24761962890625 692.0
451.2684326171875 589.0
465.85498046875 633.0
467.29180908203125 363416.0
468.9222717285156 158.0

Name: Cephaeline hydrochloride
Precursor_mz: 489.271092
Cas: 3738-70-3
Adduct: [M+Na]+
Mz: 489.2723784
Comment: Major
Smiles: CC[C@H]1CN2CCc3cc(OC)c(OC)cc3[C@@H]2C[C@@H]1C[C@H]1NCCc2cc(O)c(OC)cc21
Formula: C28H38N2O4
Mix: Alkaloids-pos-mix17
Rt: [1.83]
Rt_apex: 1.82642246
Rt_start: 1.791616667
Rt_end: 1.885266667
Ms1_intensity: 10216
N_scnas: 13
Ms1_scan_range: [540, 545, 554]
Reci_snr: 0.005682617
Ms2_scan_idx: 752
Pmz_offset: 0.001129147
Entropy: 1.0
Num Peaks: 5
186.047119140625 31.0
200.07640075683594 31.0
202.08628845214844 31.0
367.17047119140625 62.0
489.2773742675781 556.0

Name: Sinigrin
Precursor_mz: 377.0655956
Cas: 3952-98-5
Adduct: [M+NH4]+
Mz: 377.068299
Comment: Major
Smiles: C=CC/C(=N\OS(=O)(=O)O)S[C@@H]1O[C@H](CO)[C@@H](O)[C@H](O)[C@H]1O
Formula: C10H17NO9S2
Mix: Alkaloids-pos-mix17
Rt: [0.488]
Rt_apex: 0.350206707
Rt_start: 0.324683333
Rt_end: 0.419516667
Ms1_intensity: 1524
N_scnas: 19
Ms1_scan_range: [106, 111, 126]
Reci_snr: 0.185811748
Ms2_scan_idx: 163
Pmz_offset: 3.89e-05
Entropy: 0.9375746250152588
Num Peaks: 5
60.0444450378418 93.0
84.04412078857422 123.0
85.0273208618164 154.0
97.02822875976562 93.0
118.03270721435547 1514.0

Name: (+)-Magnoflorine iodide
Precursor_mz: 342.1695107
Cas: 4277-43-4
Adduct: [M]+
Mz: 342.1699847
Comment: Major
Smiles: COc1ccc2c(c1O)-c1c(O)c(OC)cc3c1[C@H](C2)[N+](C)(C)CC3
Formula: C20H24NO4+
Mix: Alkaloids-pos-mix17
Rt: [2.031]
Rt_apex: 2.03009283
Rt_start: 1.980933333
Rt_end: 2.086766667
Ms1_intensity: 2201280
N_scnas: 15
Ms1_scan_range: [568, 575, 584]
Reci_snr: 0.000288777
Ms2_scan_idx: 885
Pmz_offset: 0.000696465
Entropy: 0.9959380626678467
Num Peaks: 108
42.03396987915039 4135.0
43.04167938232422 1474.0
44.049217224121094 171.0
55.019386291503906 274.0
56.050540924072266 364.0
58.06562042236328 256166.0
72.08045196533203 190.0
115.05135345458984 239.0
141.06532287597656 325.0
144.05621337890625 168.0
151.05345153808594 329.0
152.0641326904297 1059.0
153.07298278808594 1079.0
163.05441284179688 229.0
164.05946350097656 430.0
165.0694122314453 10488.0
166.07884216308594 5035.0
167.08409118652344 1238.0
168.0559844970703 612.0
169.0635528564453 241.0
176.06480407714844 1288.0
177.07177734375 3070.0
178.0760040283203 5204.0
179.08682250976562 8247.0
180.09486389160156 671.0
181.0962677001953 2897.0
182.07395935058594 308.0
183.07896423339844 340.0
186.0339813232422 216.0
189.06861877441406 5853.0
190.07916259765625 7250.0
191.08853149414062 30516.0
192.09278869628906 530.0
193.06459045410156 6055.0
194.0740203857422 11573.0
195.07823181152344 1878.0
196.08505249023438 544.0
197.05702209472656 350.0
201.07041931152344 2546.0
202.07659912109375 1855.0
203.08729553222656 916.0
204.056396484375 957.0
205.0659942626953 11384.0
206.07203674316406 1818.0
207.0825653076172 17185.0
208.08746337890625 6131.0
209.09681701660156 11819.0
210.0679473876953 434.0
211.0759735107422 1269.0
217.06521606445312 1558.0
218.07330322265625 3251.0
219.07955932617188 19612.0
220.09439086914062 904.0
221.05938720703125 8811.0
222.06832885742188 43319.0
223.0774688720703 2930.0
224.0825958251953 1214.0
225.08998107910156 594.0
226.09750366210938 290.0
227.06922912597656 172.0
229.08474731445312 283.0
232.0509796142578 92.0
233.06109619140625 5719.0
234.0669708251953 1284.0
235.07931518554688 8788.0
236.08522033691406 7302.0
237.0911102294922 34997.0
238.0623321533203 614.0
239.07241821289062 7541.0
240.078125 295.0
241.0902862548828 307.0
245.0657958984375 92.0
246.06640625 417.0
247.07566833496094 5674.0
248.0803680419922 1021.0
249.0583038330078 2367.0
250.06480407714844 4308.0
251.07110595703125 2562.0
252.08389282226562 1071.0
253.08753967285156 1920.0
254.0931854248047 944.0
255.0985870361328 313.0
263.0698547363281 3162.0
264.0814514160156 2820.0
265.088134765625 131258.0
266.09442138671875 1943.0
267.0705261230469 9044.0
268.1058349609375 181.0
269.1224670410156 1722.0
270.09716796875 312.0
271.0921325683594 574.0
278.1197509765625 92.0
279.1059265136719 2782.0
281.1187744140625 583.0
282.0914001464844 46734.0
283.09637451171875 252.0
284.1054992675781 3209.0
292.1352844238281 187.0
296.0991516113281 228.0
297.1142578125 114281.0
299.1326599121094 10017.0
310.1447448730469 331.0
311.129150390625 930.0
312.12255859375 198.0
313.14239501953125 321.0
327.1426696777344 320.0
341.1224365234375 178.0
342.1755676269531 65996.0

Name: Neoline
Precursor_mz: 438.286042
Cas: 466-26-2
Adduct: [M+H]+
Mz: 438.2850144
Comment: Major
Smiles: CCN1C[C@]2(COC)CC[C@H](O)[C@]34C1[C@@H]([C@H](OC)[C@H]23)[C@@]1(O)C[C@H](OC)[C@H]2C[C@@H]4[C@@H]1[C@H]2O
Formula: C24H39NO6
Mix: Alkaloids-pos-mix17
Rt: [2.064]
Rt_apex: 2.064049386
Rt_start: 2.021766667
Rt_end: 2.367066667
Ms1_intensity: 9200399
N_scnas: 51
Ms1_scan_range: [574, 581, 626]
Reci_snr: 4e-05
Ms2_scan_idx: 935
Pmz_offset: 0.00306808
Entropy: 0.9100546836853027
Num Peaks: 275
41.03999328613281 498.0
42.03669738769531 436.0
43.01958465576172 1055.0
44.04921340942383 736.0
45.0335578918457 1072.0
55.05373764038086 282.0
56.050537109375 3390.0
58.06668472290039 19420.0
59.049285888671875 278.0
60.08363723754883 238.0
61.02935791015625 1614.0
67.05628204345703 619.0
70.06450653076172 324.0
71.04997253417969 2375.0
72.08163452148438 9201.0
74.06095886230469 195.0
75.04486083984375 659.0
77.03954315185547 494.0
79.05414581298828 1105.0
80.04923248291016 479.0
81.07074737548828 687.0
82.06695556640625 431.0
83.04878997802734 288.0
84.08148956298828 2847.0
85.06748962402344 571.0
86.09309387207031 498.0
88.07711791992188 570.0
91.0560073852539 5154.0
93.06901550292969 1388.0
94.06266784667969 734.0
95.05339050292969 474.0
96.08231353759766 1111.0
97.06562042236328 765.0
98.09561920166016 2135.0
102.09407043457031 10240.0
103.03919982910156 1385.0
105.07051086425781 3095.0
107.04904174804688 1571.0
108.08242797851562 17084.0
109.06800842285156 1141.0
110.0948715209961 954.0
111.04666900634766 348.0
114.09298706054688 1723.0
115.05435180664062 1534.0
116.0635986328125 540.0
117.06964874267578 2782.0
119.08866119384766 1421.0
120.08157348632812 245.0
121.06779479980469 1202.0
122.0983657836914 8820.0
123.0445556640625 1588.0
124.11319732666016 6905.0
125.06243896484375 461.0
126.09249877929688 340.0
127.05559539794922 578.0
128.0620574951172 2563.0
129.07089233398438 5753.0
130.07888793945312 351.0
131.0859832763672 4873.0
132.07920837402344 318.0
133.1020965576172 791.0
134.0948028564453 985.0
135.08140563964844 1427.0
136.1109161376953 330.0
137.06053161621094 2980.0
138.0926055908203 295.0
139.07391357421875 289.0
140.11019897460938 1495.0
141.0719757080078 3351.0
142.0755157470703 862.0
143.087646484375 5329.0
144.08314514160156 464.0
145.10238647460938 2051.0
146.0963897705078 752.0
147.0818634033203 1232.0
148.11505126953125 885.0
149.09359741210938 411.0
151.07931518554688 480.0
152.10911560058594 3142.0
153.07122802734375 1726.0
154.12521362304688 34559.0
155.0884246826172 5330.0
156.08969116210938 395.0
157.10122680664062 3801.0
158.09837341308594 1136.0
159.0863037109375 929.0
160.11102294921875 1190.0
161.09808349609375 1323.0
162.13104248046875 541.0
163.11532592773438 620.0
164.11158752441406 300.0
165.07301330566406 2309.0
166.07521057128906 1059.0
167.08770751953125 3566.0
168.0923614501953 671.0
169.1018524169922 4823.0
170.09971618652344 271.0
171.11521911621094 1813.0
172.11715698242188 1032.0
173.09617614746094 1328.0
174.12796020507812 3035.0
175.1089630126953 461.0
176.14300537109375 257.0
178.08348083496094 1221.0
179.08680725097656 3896.0
180.09295654296875 821.0
181.1038055419922 5079.0
182.10992431640625 676.0
183.12071228027344 2779.0
184.11146545410156 642.0
185.09915161132812 1627.0
186.1296844482422 3267.0
187.13235473632812 1139.0
188.1435089111328 1581.0
189.12649536132812 724.0
190.0772247314453 357.0
191.0807647705078 757.0
192.09666442871094 1042.0
193.10162353515625 4511.0
194.1052703857422 392.0
195.119384765625 4526.0
196.1007537841797 239.0
197.12989807128906 2075.0
198.13409423828125 748.0
199.11309814453125 996.0
200.14813232421875 1440.0
201.12612915039062 717.0
202.16038513183594 584.0
203.0852813720703 903.0
204.09848022460938 639.0
205.10415649414062 2700.0
206.11634826660156 1019.0
207.12091064453125 4040.0
208.11781311035156 430.0
209.13536071777344 1586.0
210.1269073486328 398.0
211.11672973632812 1201.0
212.14566040039062 1203.0
213.1340789794922 1160.0
214.1617431640625 1201.0
215.10337829589844 603.0
216.09246826171875 854.0
217.1044921875 909.0
218.11265563964844 736.0
219.11485290527344 1586.0
220.17140197753906 574.0
221.138671875 3406.0
222.12896728515625 345.0
223.11517333984375 1676.0
224.147705078125 1082.0
225.1299591064453 2046.0
226.16290283203125 887.0
227.14111328125 656.0
228.14474487304688 272.0
229.12083435058594 442.0
230.11392211914062 330.0
231.1155548095703 1469.0
232.1322021484375 336.0
233.129638671875 1774.0
234.13351440429688 292.0
235.14599609375 1079.0
236.1520538330078 339.0
237.12998962402344 1368.0
238.1575927734375 756.0
239.14617919921875 1199.0
240.17813110351562 587.0
241.12295532226562 1943.0
242.156982421875 446.0
243.14068603515625 834.0
244.1790313720703 361.0
245.14047241210938 744.0
246.1082000732422 245.0
247.1153564453125 323.0
248.13339233398438 201.0
249.13137817382812 2496.0
250.16021728515625 488.0
251.14669799804688 1780.0
252.17745971679688 552.0
253.12770080566406 982.0
254.15805053710938 444.0
255.1411590576172 1355.0
256.1755676269531 391.0
257.1535949707031 492.0
258.185302734375 490.0
259.1445617675781 412.0
261.1273193359375 898.0
262.1624450683594 391.0
263.1426696777344 1347.0
264.1680908203125 348.0
265.158935546875 460.0
266.1791076660156 281.0
267.1416015625 2225.0
268.17706298828125 264.0
269.1500549316406 794.0
270.1847839355469 654.0
271.19146728515625 1069.0
272.1676025390625 264.0
273.1570739746094 1069.0
274.185546875 174.0
275.1507568359375 239.0
276.1736145019531 321.0
277.1610107421875 855.0
278.1875915527344 754.0
279.14105224609375 519.0
280.1736755371094 477.0
281.15875244140625 1703.0
282.1927185058594 374.0
283.1789855957031 597.0
284.20721435546875 312.0
285.163818359375 311.0
286.1884765625 293.0
287.1626892089844 235.0
288.1814270019531 584.0
289.182861328125 191.0
290.1764831542969 192.0
293.1603698730469 617.0
294.19207763671875 927.0
295.1797790527344 1179.0
296.210205078125 772.0
297.15533447265625 321.0
298.1867980957031 549.0
299.17388916015625 990.0
300.1991271972656 358.0
302.1816101074219 270.0
303.16064453125 481.0
306.19317626953125 1895.0
308.2150573730469 236.0
309.18408203125 346.0
310.1867370605469 1057.0
311.16131591796875 357.0
312.2018737792969 1543.0
313.1895446777344 623.0
314.1763000488281 376.0
315.18951416015625 333.0
316.1993408203125 528.0
318.21136474609375 182.0
320.1971435546875 418.0
324.2023620605469 6908.0
325.19110107421875 497.0
326.21429443359375 846.0
327.198486328125 772.0
328.1968688964844 3220.0
330.2084045410156 1845.0
331.1934814453125 336.0
338.220458984375 5377.0
340.23394775390625 193.0
342.2118835449219 2172.0
343.21990966796875 2437.0
344.218994140625 458.0
346.2084655761719 295.0
348.2272033691406 258.0
352.2322998046875 327.0
355.13543701171875 338.0
356.228515625 46274.0
357.22247314453125 188.0
358.2470397949219 423.0
360.22064208984375 3512.0
362.237060546875 15415.0
370.2455749511719 16103.0
372.2600402832031 348.0
374.2365417480469 1712.0
378.2406921386719 219.0
388.25164794921875 123231.0
390.2645568847656 489.0
392.2548522949219 1406.0
402.27105712890625 8756.0
406.25799560546875 1345.0
420.2823181152344 295624.0
436.94378662109375 3413.0
438.2912902832031 855744.0
439.6084899902344 1155.0
439.8674621582031 807.0
439.9881286621094 228.0
440.1000061035156 178.0
440.3061218261719 165.0

Name: Neoline
Precursor_mz: 460.2647723
Cas: 466-26-2
Adduct: [M+Na]+
Mz: 460.2669587
Comment: Major
Smiles: CCN1C[C@]2(COC)CC[C@H](O)[C@]34C1[C@@H]([C@H](OC)[C@H]23)[C@@]1(O)C[C@H](OC)[C@H]2C[C@@H]4[C@@H]1[C@H]2O
Formula: C24H39NO6
Mix: Alkaloids-pos-mix17
Rt: [2.064]
Rt_apex: 2.061714724
Rt_start: 2.028266667
Rt_end: 2.089166667
Ms1_intensity: 6625
N_scnas: 9
Ms1_scan_range: [575, 580, 585]
Reci_snr: 0.00129678
Ms2_scan_idx: 937
Pmz_offset: 0.003010531
Entropy: 0.7977759838104248
Num Peaks: 4
357.227783203125 92.0
389.2643737792969 123.0
410.24188232421875 93.0
460.2658386230469 288.0

Name: Chelidonine
Precursor_mz: 354.1331912
Cas: 476-32-4
Adduct: [M+H]+
Mz: 354.1335992
Comment: Major
Smiles: CN1Cc2c(ccc3c2OCO3)[C@H]2[C@@H](O)Cc3cc4c(cc3[C@H]21)OCO4
Formula: C20H19NO5
Mix: Alkaloids-pos-mix17
Rt: [2.62]
Rt_apex: 2.625813569
Rt_start: 2.580716667
Rt_end: 2.692883333
Ms1_intensity: 3073040
N_scnas: 16
Ms1_scan_range: [657, 664, 674]
Reci_snr: 0.00020244
Ms2_scan_idx: 1345
Pmz_offset: 0.00127476
Entropy: 0.9881928563117981
Num Peaks: 125
44.048309326171875 332.0
51.02360534667969 359.0
55.018375396728516 190.0
77.03959655761719 2742.0
79.05170440673828 2585.0
89.03990936279297 297.0
91.05606842041016 846.0
93.03116607666016 629.0
102.04734802246094 197.0
103.05351257324219 5728.0
105.0331802368164 983.0
107.04911041259766 490.0
115.05442810058594 4301.0
117.06061553955078 202.0
118.06639862060547 4245.0
119.04586029052734 315.0
123.04151916503906 295.0
130.06295776367188 946.0
131.04910278320312 8964.0
132.0792999267578 295.0
133.02932739257812 1220.0
135.04397583007812 100577.0
143.0491180419922 5970.0
145.05514526367188 415.0
146.0608673095703 3141.0
147.04110717773438 1538.0
148.0536651611328 1025.0
149.05941772460938 3688.0
150.04623413085938 244.0
151.0397491455078 1167.0
152.06594848632812 276.0
153.0713348388672 267.0
158.06143188476562 821.0
159.04568481445312 9171.0
160.07562255859375 2488.0
161.05899047851562 22347.0
162.05789184570312 506.0
163.0401611328125 67473.0
164.06674194335938 439.0
165.0695037841797 1691.0
166.08074951171875 454.0
167.07875061035156 271.0
171.0492401123047 263.0
172.05467224121094 351.0
173.0612030029297 7276.0
175.0366668701172 1799.0
176.06861877441406 9846.0
177.07000732421875 3272.0
178.07797241210938 5121.0
179.0850372314453 19763.0
181.0623779296875 271.0
186.0513153076172 666.0
187.04994201660156 3502.0
188.0704803466797 45439.0
189.07064819335938 367284.0
190.08120727539062 5537.0
191.0847625732422 9534.0
192.05789184570312 465.0
193.060791015625 396.0
194.06239318847656 327.0
195.07638549804688 171.0
200.0609130859375 290.0
201.07252502441406 2695.0
202.07472229003906 524.0
204.0565185546875 203.0
205.068115234375 6814.0
206.0741729736328 494.0
207.08267211914062 22411.0
209.0563507080078 1440.0
217.06533813476562 261065.0
218.07135009765625 3232.0
219.08383178710938 12568.0
220.05079650878906 369.0
221.0574188232422 365.0
222.0663604736328 2326.0
223.07550048828125 735.0
229.08274841308594 275.0
232.04896545410156 281.0
233.05908203125 1680.0
234.06924438476562 349.0
235.0751495361328 32009.0
236.07672119140625 182.0
237.0912322998047 38919.0
245.05934143066406 24006.0
246.06874084472656 8083.0
247.0758056640625 811391.0
248.08712768554688 547.0
249.08944702148438 2754.0
250.07382202148438 784.0
251.0690155029297 865.0
259.0769348144531 369.0
262.06036376953125 416.0
263.07000732421875 6790.0
264.0747375488281 237.0
265.0859680175781 45699.0
266.0556640625 526.0
267.0660705566406 1154.0
273.0552062988281 248.0
274.05792236328125 445.0
275.07177734375 1107542.0
276.043212890625 956.0
277.09344482421875 2213.0
278.05438232421875 1352.0
279.0685729980469 1319.0
280.0728454589844 762.0
281.0836486816406 327.0
290.08343505859375 243.0
291.066650390625 376.0
292.0754699707031 342.0
293.0812683105469 22491.0
294.0887756347656 259.0
295.0979919433594 49521.0
303.0655517578125 214.0
304.1438903808594 342.0
305.08197021484375 171868.0
306.1074523925781 489.0
307.09527587890625 1703.0
320.09942626953125 605.0
323.09423828125 161884.0
332.0932922363281 324.0
334.1064453125 1280.0
336.12310791015625 37989.0
339.1168518066406 202.0
353.0442199707031 562.0
354.13671875 285075.0

Name: Berbamine
Precursor_mz: 609.2972826
Cas: 478-61-5
Adduct: [M+H]+
Mz: 609.2959135
Comment: Major
Smiles: COc1cc2c3cc1Oc1c(OC)c(OC)cc4c1[C@@H](Cc1ccc(O)c(c1)Oc1ccc(cc1)C[C@@H]3N(C)CC2)N(C)CC4
Formula: C37H40N2O6
Mix: Alkaloids-pos-mix17
Rt: [2.35]
Rt_apex: 2.355980981
Rt_start: 2.238416667
Rt_end: 2.653883333
Ms1_intensity: 1043477
N_scnas: 60
Ms1_scan_range: [607, 624, 668]
Reci_snr: 0.00396195
Ms2_scan_idx: 1124
Pmz_offset: 0.002773108
Entropy: 0.8834214210510254
Num Peaks: 122
44.04922103881836 826.0
58.06455612182617 982.0
115.05287170410156 224.0
121.06318664550781 200.0
133.08917236328125 198.0
145.0652313232422 298.0
146.09811401367188 741.0
151.07244873046875 215.0
159.08102416992188 775.0
160.0737762451172 368.0
161.0856475830078 295.0
162.08998107910156 425.0
165.091064453125 232.0
167.0714111328125 292.0
174.09095764160156 1910.0
175.1015625 651.0
176.1039276123047 2587.0
177.08673095703125 271.0
178.08724975585938 272.0
188.10696411132812 427.0
189.11688232421875 221.0
190.09078979492188 595.0
191.09437561035156 561.0
192.10447692871094 1584.0
199.07749938964844 688.0
204.1045379638672 834.0
205.0901336669922 204.0
206.0801239013672 1046.0
207.08056640625 209.0
208.09962463378906 482.0
209.098876953125 239.0
211.086181640625 380.0
213.0869903564453 1082.0
219.1335906982422 350.0
220.1006622314453 497.0
221.09906005859375 195.0
222.11227416992188 921.0
223.0753936767578 232.0
225.0963134765625 713.0
227.10943603515625 818.0
234.1099395751953 643.0
235.0771942138672 237.0
237.09329223632812 366.0
239.10281372070312 467.0
249.09376525878906 335.0
250.09811401367188 400.0
251.10670471191406 358.0
252.1106414794922 241.0
253.0897979736328 331.0
254.11782836914062 207.0
264.1156921386719 291.0
265.08587646484375 354.0
266.0898742675781 335.0
267.10723876953125 197.0
278.1268005371094 185.0
279.10595703125 250.0
280.114990234375 990.0
281.1188049316406 328.0
283.0916748046875 187.0
297.1191101074219 192.0
311.1365966796875 188.0
320.1369323730469 211.0
322.1387634277344 223.0
335.1408386230469 175.0
338.1430969238281 420.0
340.1563720703125 1579.0
343.131591796875 318.0
345.15179443359375 354.0
349.14447021484375 293.0
350.1468811035156 380.0
354.17352294921875 579.0
355.13287353515625 296.0
357.1562194824219 740.0
359.13214111328125 223.0
365.19183349609375 347.0
369.155517578125 187.0
371.1562194824219 228.0
374.1470031738281 285.0
381.1749572753906 9784.0
384.1562805175781 184.0
386.16680908203125 655.0
387.19061279296875 243.0
388.1798400878906 427.0
389.2007751464844 300.0
396.2032165527344 669.0
400.1909484863281 313.0
402.220458984375 413.0
414.1910095214844 186.0
491.1952819824219 180.0
503.1828918457031 342.0
504.19073486328125 243.0
515.1812744140625 189.0
516.1946411132812 194.0
517.1676025390625 201.0
519.1865234375 183.0
520.2070922851562 316.0
523.2169799804688 235.0
532.220947265625 704.0
533.202392578125 348.0
534.2301635742188 1189.0
535.2199096679688 2126.0
536.2235717773438 258.0
537.2184448242188 233.0
546.2301025390625 920.0
547.2145385742188 1729.0
548.2228393554688 423.0
549.2451782226562 400.0
550.2322998046875 305.0
551.2202758789062 238.0
552.2421875 252.0
561.2421264648438 242.0
562.2266845703125 591.0
563.2486572265625 474.0
564.2449340820312 357.0
566.2568359375 11005.0
577.2598266601562 928.0
578.25830078125 17790.0
579.264404296875 383.0
580.2781372070312 1562.0
592.2796020507812 190.0
594.2860717773438 178.0
609.3026123046875 241778.0

Name: Berbamine
Precursor_mz: 631.2756801
Cas: 478-61-5
Adduct: [M+Na]+
Mz: 631.2778577
Comment: Major
Smiles: COc1cc2c3cc1Oc1c(OC)c(OC)cc4c1[C@@H](Cc1ccc(O)c(c1)Oc1ccc(cc1)C[C@@H]3N(C)CC2)N(C)CC4
Formula: C37H40N2O6
Mix: Alkaloids-pos-mix17
Rt: [2.35]
Rt_apex: 2.341434915
Rt_start: 2.273083333
Rt_end: 2.614883333
Ms1_intensity: 5975
N_scnas: 49
Ms1_scan_range: [612, 622, 662]
Reci_snr: 0.00556524
Ms2_scan_idx: 1151
Pmz_offset: 0.001154404
Entropy: 1.0
Num Peaks: 2
599.2667236328125 123.0
631.28564453125 1609.0

Name: Allocryptopine
Precursor_mz: 370.1653349
Cas: 485-91-6
Adduct: [M+H]+
Mz: 370.1648993
Comment: Major
Smiles: COc1ccc2c(c1OC)CN(C)CCc1cc3c(cc1C(=O)C2)OCO3
Formula: C21H23NO5
Mix: Alkaloids-pos-mix17
Rt: [2.678]
Rt_apex: 2.680767054
Rt_start: 2.621383333
Rt_end: 2.951566667
Ms1_intensity: 4759148
N_scnas: 50
Ms1_scan_range: [663, 672, 714]
Reci_snr: 0.000164748
Ms2_scan_idx: 1405
Pmz_offset: 0.00119315
Entropy: 0.9882557988166809
Num Peaks: 199
42.03307342529297 478.0
44.049232482910156 11000.0
58.06456756591797 803.0
65.03655242919922 237.0
75.04610443115234 169.0
77.03588104248047 1455.0
78.04672241210938 184.0
79.05293273925781 1395.0
89.03723907470703 928.0
90.04914093017578 243.0
91.05470275878906 11098.0
92.06181335449219 202.0
93.06904602050781 708.0
95.04932403564453 396.0
102.04590606689453 627.0
103.0534896850586 3954.0
104.06458282470703 266.0
105.07054901123047 1976.0
106.0408935546875 222.0
107.04907989501953 2138.0
108.05766296386719 1901.0
109.06365203857422 714.0
110.06987762451172 328.0
115.05138397216797 852.0
116.05305480957031 182.0
117.05754852294922 798.0
118.0678939819336 833.0
119.05042266845703 8962.0
120.05701446533203 1282.0
121.06475067138672 4088.0
122.07360076904297 3185.0
123.078857421875 1273.0
130.06613159179688 6550.0
131.07156372070312 4178.0
132.07925415039062 2208.0
133.0665283203125 459.0
134.03634643554688 199.0
135.0439453125 10157.0
136.05203247070312 7705.0
137.05894470214844 1211.0
138.0679168701172 6694.0
143.0474090576172 591.0
144.07814025878906 470.0
145.06187438964844 572.0
146.05743408203125 1261.0
147.0444793701172 4584.0
148.0502166748047 3721.0
149.06109619140625 44311.0
150.06854248046875 7305.0
151.07420349121094 23249.0
152.06417846679688 437.0
153.09385681152344 14241.0
155.05178833007812 200.0
158.0596160888672 655.0
159.06689453125 9024.0
160.07557678222656 6675.0
161.06072998046875 3059.0
162.06678771972656 2124.0
163.07595825195312 6062.0
164.06671142578125 365.0
165.09291076660156 39635.0
166.0626220703125 23009.0
167.08413696289062 468.0
172.03990173339844 251.0
173.05931091308594 1551.0
174.05581665039062 3188.0
175.07374572753906 2089.0
176.0704345703125 4141.0
177.07742309570312 4541.0
178.08729553222656 6062.0
179.0718536376953 4035.0
181.08688354492188 47117.0
182.07400512695312 211.0
183.07901000976562 309.0
185.06103515625 497.0
186.06466674804688 312.0
187.04029846191406 1868.0
188.07235717773438 566419.0
189.0802459716797 173099.0
190.0869598388672 19069.0
191.0730743408203 13878.0
192.10256958007812 4989.0
193.08804321289062 2518.0
194.07601928710938 668.0
195.0802459716797 2731.0
196.0929718017578 329.0
200.07276916503906 647.0
201.074462890625 1095.0
202.0806427001953 1399.0
203.08935546875 1326.0
204.0985565185547 3371.0
205.070068359375 2588.0
206.0841827392578 117140.0
207.08868408203125 2414.0
208.0875244140625 755.0
209.06036376953125 1725.0
210.1086883544922 5243.0
211.07398986816406 2103.0
212.0782928466797 242.0
217.06735229492188 2486.0
218.0775146484375 1137.0
219.0817108154297 3610.0
220.0882110595703 1758.0
221.09910583496094 1403.0
222.10394287109375 3343.0
223.07752990722656 2400.0
224.0847625732422 957.0
225.0963592529297 827.0
226.0996856689453 4237.0
227.10736083984375 428.0
230.0735626220703 472.0
231.08151245117188 953.0
232.09165954589844 8026.0
233.06117248535156 1580.0
234.1078338623047 880.0
235.07293701171875 3011.0
236.0852813720703 798.0
237.09117126464844 1374.0
238.09921264648438 4499.0
239.06814575195312 1048.0
241.12522888183594 7343.0
245.0570831298828 608.0
246.0686798095703 3815.0
247.0757293701172 8271.0
248.08042907714844 4010.0
249.09823608398438 2900.0
250.09815979003906 7728.0
251.10231018066406 3420.0
252.0772705078125 8927.0
253.12110900878906 2985.0
254.0910186767578 2053.0
255.1031494140625 328.0
259.0768737792969 5249.0
260.0852966308594 9120.0
261.0888671875 1676.0
262.0671081542969 843.0
263.0767517089844 4992.0
264.09747314453125 1125.0
265.0859069824219 3084.0
266.0967712402344 3737.0
267.1050109863281 987.0
268.0737609863281 2754.0
269.1202392578125 4944.0
274.067138671875 1857.0
275.07171630859375 31202.0
276.082763671875 4012.0
277.0910339355469 2865.0
278.096435546875 10748.0
279.1036682128906 4042.0
280.1127014160156 3715.0
281.11651611328125 8546.0
282.09619140625 693.0
283.09881591796875 6643.0
284.1055908203125 190.0
285.1094055175781 530.0
288.10052490234375 697.0
289.0875244140625 2740.0
290.0953369140625 149157.0
291.10009765625 9397.0
292.11376953125 4454.0
293.08599853515625 2341.0
294.15606689453125 3960.0
295.0931091308594 1601.0
296.1112976074219 1636.0
297.1143493652344 678.0
299.13275146484375 1754.0
302.0841369628906 638.0
304.0973205566406 1498.0
305.111328125 1360.0
306.0950927734375 17629.0
307.0951843261719 2861.0
308.10430908203125 4570.0
309.1150817871094 8821.0
310.12506103515625 168.0
311.1292419433594 9030.0
319.11334228515625 742.0
320.12945556640625 8893.0
321.1119689941406 16344.0
323.12945556640625 3655.0
324.1064453125 1023.0
327.1275329589844 2694.0
332.0982971191406 382.0
334.1140441894531 2354.0
335.1177673339844 1531.0
336.1255798339844 35479.0
337.13232421875 14192.0
338.1328430175781 336.0
339.1270751953125 8828.0
340.148681640625 1026.0
341.14068603515625 337.0
342.1678771972656 221.0
350.1390686035156 5212.0
352.15606689453125 98344.0
369.02349853515625 1333.0
370.16741943359375 635506.0
371.1670837402344 602.0
371.3780212402344 471.0
371.61602783203125 304.0
371.7161560058594 227.0

Name: Allocryptopine
Precursor_mz: 392.1446675
Cas: 485-91-6
Adduct: [M+Na]+
Mz: 392.1468435
Comment: Major
Smiles: COc1ccc2c(c1OC)CN(C)CCc1cc3c(cc1C(=O)C2)OCO3
Formula: C21H23NO5
Mix: Alkaloids-pos-mix17
Rt: [2.678]
Rt_apex: 2.684310329
Rt_start: 2.634383333
Rt_end: 2.8132
Ms1_intensity: 2577
N_scnas: 26
Ms1_scan_range: [665, 673, 692]
Reci_snr: 0.014344931
Ms2_scan_idx: 1393
Pmz_offset: 0.001603388
Entropy: 1.0
Num Peaks: 4
149.02862548828125 62.0
150.02392578125 31.0
352.1510009765625 31.0
392.1468200683594 62.0

Name: N-Methylcytisine
Precursor_mz: 205.1336303
Cas: 486-86-2
Adduct: [M+H]+
Mz: 205.1335396
Comment: Major
Smiles: CN1C[C@@H]2C[C@H](C1)c1cccc(=O)n1C2
Formula: C12H16N2O
Mix: Alkaloids-pos-mix18
Rt: [0.343, 0.492]
Rt_apex: 0.491373437
Rt_start: 0.454333333
Rt_end: 0.567233333
Ms1_intensity: 872182
N_scnas: 20
Ms1_scan_range: [127, 136, 148]
Reci_snr: 0.002680499
Ms2_scan_idx: 228
Pmz_offset: 0.001474637
Entropy: 0.9999997615814209
Num Peaks: 25
42.034759521484375 5334.0
43.043399810791016 1699.0
44.050025939941406 350.0
56.050392150878906 678.0
58.06653594970703 137196.0
80.05155181884766 396.0
82.06549835205078 204.0
91.0544662475586 341.0
104.0471420288086 497.0
105.05877685546875 194.0
106.0637435913086 204.0
107.0720443725586 220.0
108.08219909667969 1359.0
110.09905242919922 590.0
115.05411529541016 255.0
117.05877685546875 470.0
118.06607818603516 283.0
122.05780029296875 297.0
133.0516357421875 876.0
134.06040954589844 195.0
146.0621795654297 2093.0
147.06625366210938 353.0
160.07342529296875 487.0
162.09500122070312 509.0
205.1359405517578 21195.0

Name: Gelsemine
Precursor_mz: 323.1755281
Cas: 509-15-9
Adduct: [M+H]+
Mz: 323.1754044
Comment: Major
Smiles: C=CC12CN(C)C3C4CO[C@H](C[C@H]41)[C@]1(C(=O)Nc4ccccc41)C32
Formula: C20H22N2O2
Mix: Alkaloids-pos-mix18
Rt: [1.882]
Rt_apex: 1.879472545
Rt_start: 1.837466667
Rt_end: 2.173116667
Ms1_intensity: 1990540
N_scnas: 51
Ms1_scan_range: [502, 508, 554]
Reci_snr: 9.83e-05
Ms2_scan_idx: 822
Pmz_offset: 0.001329931
Entropy: 0.9806317687034607
Num Peaks: 153
41.03903579711914 1808.0
42.03390884399414 3061.0
43.0535888671875 2164.0
44.050086975097656 6425.0
53.04090881347656 352.0
54.033836364746094 566.0
55.04222106933594 375.0
56.050472259521484 267.0
58.065547943115234 1486.0
68.05162048339844 787.0
70.06678771972656 140245.0
72.08394622802734 449.0
73.05228424072266 211.0
77.03823852539062 826.0
79.0540771484375 832.0
81.0353012084961 405.0
86.05917358398438 3906.0
88.07835388183594 1939.0
91.0559310913086 7062.0
93.06893920898438 706.0
94.06531524658203 1936.0
96.08223724365234 481.0
103.0533676147461 863.0
104.04872131347656 722.0
105.0689926147461 2827.0
106.06389617919922 599.0
107.07073974609375 689.0
108.08234405517578 721.0
109.08991241455078 488.0
115.05276489257812 3978.0
116.06351470947266 1980.0
117.07109069824219 9373.0
118.06624603271484 459.0
119.083984375 683.0
120.08148956298828 1177.0
121.09396362304688 646.0
122.09673309326172 399.0
128.0540313720703 2351.0
129.07240295410156 1943.0
130.0659942626953 2868.0
131.08749389648438 9148.0
132.04525756835938 4907.0
133.0890655517578 451.0
134.09796142578125 2161.0
135.1057891845703 479.0
136.11410522460938 257.0
140.05198669433594 294.0
141.07188415527344 643.0
143.08755493164062 295.0
144.08474731445312 433.0
145.0854034423828 282.0
146.06068420410156 8031.0
147.1090087890625 751.0
148.11497497558594 1558.0
149.08665466308594 206.0
150.09246826171875 955.0
151.05853271484375 418.0
152.0623016357422 209.0
154.06414794921875 633.0
156.08084106445312 165.0
158.0647735595703 6268.0
159.08267211914062 4306.0
160.10562133789062 845.0
161.12115478515625 454.0
162.12916564941406 1574.0
164.1114959716797 265.0
165.0675048828125 844.0
166.06788635253906 816.0
167.07492065429688 1844.0
168.08135986328125 441.0
169.08534240722656 227.0
170.0612030029297 424.0
172.07472229003906 1299.0
176.1112518310547 439.0
177.05859375 1227.0
178.07028198242188 2802.0
179.0848388671875 301.0
180.08157348632812 1975.0
181.09239196777344 282.0
182.05870056152344 553.0
183.06556701660156 924.0
184.08090209960938 2506.0
189.07237243652344 232.0
190.12550354003906 2238.0
191.133056640625 1159.0
192.0829620361328 1389.0
193.09178161621094 873.0
194.0973663330078 389.0
195.07029724121094 25459.0
196.0790557861328 9591.0
197.08253479003906 746.0
198.09054565429688 410.0
201.06832885742188 254.0
202.0645294189453 428.0
203.0751953125 2234.0
204.0823516845703 848.0
205.09201049804688 412.0
206.09410095214844 374.0
207.10264587402344 153.0
208.07925415039062 5375.0
209.08859252929688 686.0
210.0922393798828 10384.0
212.07608032226562 273.0
215.07241821289062 220.0
216.08206176757812 636.0
217.08786010742188 2789.0
218.0980682373047 11244.0
219.11268615722656 395.0
220.11302185058594 1072.0
221.090576171875 536.0
222.09750366210938 1345.0
223.10670471191406 304.0
224.1118927001953 490.0
228.08106994628906 557.0
229.09738159179688 193.0
230.09893798828125 1284.0
231.10906982421875 310.0
232.0786590576172 201.0
233.08456420898438 808.0
234.09263610839844 1378.0
235.13084411621094 153.0
236.11099243164062 57030.0
237.11044311523438 193.0
238.1228485107422 8963.0
240.08670043945312 167.0
241.09017944335938 272.0
242.0957489013672 183.0
244.10877990722656 513.0
246.09710693359375 584.0
247.10202026367188 329.0
248.10678100585938 1145.0
249.10470581054688 286.0
250.12017822265625 369.0
251.11769104003906 1296.0
252.12611389160156 283.0
254.131103515625 294.0
256.11260986328125 614.0
259.1060485839844 319.0
260.1122741699219 198.0
262.1282653808594 1933.0
263.1175537109375 689.0
264.1429138183594 694.0
265.14056396484375 256.0
274.1296691894531 1506.0
276.1432189941406 239.0
279.155029296875 309.0
280.14068603515625 384.0
292.1351623535156 1039.0
293.1698913574219 906.0
295.1724548339844 206.0
305.1650390625 635.0
322.196533203125 299.0
323.1797180175781 183470.0

Name: Delsoline
Precursor_mz: 468.2968655
Cas: 509-18-2
Adduct: [M+H]+
Mz: 468.2955791
Comment: Major
Smiles: CCN1C[C@]2(COC)CC[C@H](O)[C@]34C1[C@](O)([C@@H](OC)[C@H]23)[C@@]1(O)C[C@H](OC)[C@H]2C[C@@H]4[C@@H]1[C@H]2OC
Formula: C25H41NO7
Mix: Alkaloids-pos-mix18
Rt: [2.328]
Rt_apex: 2.32691893
Rt_start: 2.283783333
Rt_end: 2.565416667
Ms1_intensity: 11677468
N_scnas: 41
Ms1_scan_range: [571, 577, 613]
Reci_snr: 4.32e-05
Ms2_scan_idx: 1106
Pmz_offset: 0.003437911
Entropy: 0.8994681239128113
Num Peaks: 294
41.03727722167969 556.0
42.03213119506836 167.0
43.019569396972656 200.0
44.049198150634766 675.0
45.03260040283203 1407.0
46.06494903564453 296.0
47.05025863647461 778.0
55.018333435058594 209.0
56.04842758178711 1118.0
58.06560516357422 13637.0
59.04928207397461 277.0
67.0528335571289 690.0
70.0633316040039 324.0
71.04878997802734 2603.0
72.08283233642578 5969.0
75.04364776611328 10923.0
77.03585815429688 739.0
79.05290985107422 1146.0
80.05049133300781 1152.0
81.06822967529297 504.0
82.06696319580078 557.0
83.04751586914062 477.0
84.08149719238281 3090.0
85.02738189697266 1047.0
86.06056213378906 251.0
87.04366302490234 2471.0
88.07844543457031 430.0
91.0560302734375 4189.0
92.0496826171875 194.0
93.07038116455078 1053.0
94.0654067993164 1143.0
95.04930877685547 495.0
96.08096313476562 912.0
98.09703063964844 5697.0
100.07365417480469 1247.0
101.05736541748047 240.0
102.09268188476562 1672.0
103.05490112304688 604.0
105.07197570800781 2368.0
106.0683364868164 292.0
107.04761505126953 1237.0
108.08245849609375 78530.0
109.06363677978516 1668.0
110.09490203857422 2756.0
111.07923889160156 248.0
112.07539367675781 1613.0
114.09002685546875 1901.0
115.05589294433594 1024.0
116.0696792602539 217.0
117.06816864013672 2441.0
119.04888916015625 1720.0
120.07699584960938 261.0
121.0879135131836 2109.0
122.09530639648438 22985.0
123.08040618896484 745.0
124.11323547363281 8123.0
125.06248474121094 648.0
126.09097290039062 288.0
127.05406188964844 273.0
128.10498046875 2238.0
129.0677490234375 2705.0
130.0901336669922 1125.0
131.0828094482422 2083.0
132.0841064453125 297.0
133.06491088867188 916.0
134.0964813232422 1527.0
135.0782012939453 1723.0
136.07823181152344 793.0
137.0605926513672 2583.0
138.0860595703125 1164.0
139.073974609375 270.0
140.1085968017578 32790.0
141.07203674316406 1483.0
142.08058166503906 537.0
143.0860137939453 2375.0
144.1000518798828 891.0
145.06356811523438 1628.0
146.09475708007812 863.0
147.08023071289062 1548.0
148.11000061035156 821.0
149.0988006591797 495.0
150.08917236328125 521.0
151.075927734375 2106.0
152.1074676513672 15383.0
153.0660858154297 1150.0
154.12353515625 39505.0
155.0867462158203 2476.0
156.13360595703125 320.0
157.0960235595703 1032.0
158.09669494628906 570.0
159.08106994628906 1916.0
160.11465454101562 1424.0
161.09637451171875 657.0
162.12933349609375 738.0
163.07418823242188 316.0
164.1062774658203 592.0
165.0712890625 1381.0
166.07891845703125 629.0
167.08416748046875 2137.0
168.09243774414062 409.0
169.09828186035156 1614.0
170.1162872314453 765.0
171.07858276367188 1857.0
172.11355590820312 787.0
173.0962677001953 2607.0
174.12435913085938 781.0
175.11277770996094 573.0
176.10585021972656 487.0
177.09613037109375 543.0
178.08544921875 874.0
179.08877563476562 2173.0
180.0892791748047 477.0
181.09823608398438 2014.0
182.07403564453125 243.0
183.0809326171875 1478.0
184.11346435546875 485.0
185.09542846679688 1392.0
186.12786865234375 1043.0
187.10366821289062 797.0
188.10704040527344 1460.0
189.0937957763672 444.0
190.12376403808594 1881.0
191.08474731445312 1123.0
192.09288024902344 658.0
193.0978240966797 2926.0
194.1151580810547 288.0
195.11557006835938 1892.0
196.12051391601562 379.0
197.09454345703125 1151.0
198.12828063964844 473.0
199.11322021484375 759.0
200.14625549316406 666.0
201.0884246826172 1247.0
202.12059020996094 1401.0
203.1313934326172 923.0
204.13670349121094 840.0
205.10227966308594 1874.0
206.1144561767578 518.0
207.11497497558594 2059.0
208.12197875976562 507.0
209.10504150390625 1144.0
210.131103515625 412.0
211.1229705810547 1077.0
212.1437530517578 370.0
213.09527587890625 537.0
214.12490844726562 634.0
215.10968017578125 1088.0
216.14004516601562 1217.0
217.09634399414062 833.0
218.11900329589844 407.0
219.1170654296875 2556.0
220.12156677246094 512.0
221.13462829589844 1687.0
222.12281799316406 415.0
223.1153106689453 2090.0
224.14784240722656 462.0
225.13009643554688 1234.0
226.12506103515625 572.0
227.1053009033203 380.0
228.13851928710938 930.0
229.09548950195312 402.0
230.15452575683594 396.0
231.1178436279297 1756.0
232.17510986328125 440.0
233.1340789794922 1501.0
234.14439392089844 1473.0
235.11387634277344 1522.0
236.15219116210938 737.0
237.1258087158203 2913.0
238.1339111328125 336.0
239.13330078125 633.0
240.14784240722656 312.0
241.11874389648438 522.0
242.15713500976562 296.0
243.13865661621094 263.0
244.13095092773438 300.0
245.09669494628906 216.0
246.1501922607422 343.0
247.1177215576172 1731.0
248.1401824951172 404.0
249.1293182373047 2085.0
250.14483642578125 765.0
251.1468505859375 1613.0
252.14419555664062 836.0
253.1211700439453 675.0
254.1604461669922 423.0
255.1390838623047 889.0
256.1734924316406 688.0
257.1515197753906 389.0
258.1539306640625 705.0
259.10858154296875 638.0
260.1668395996094 1389.0
261.1343078613281 641.0
262.1444396972656 831.0
263.1337585449219 508.0
264.1636962890625 510.0
265.1202697753906 2220.0
266.16326904296875 821.0
267.14178466796875 886.0
269.1594543457031 850.0
270.1896057128906 278.0
271.1338806152344 475.0
272.16082763671875 261.0
273.1526184082031 224.0
274.1392517089844 382.0
275.1346435546875 153.0
276.1808166503906 1255.0
277.1214904785156 983.0
278.1573791503906 817.0
279.138916015625 2025.0
280.1691589355469 1437.0
281.1518859863281 883.0
282.1882019042969 475.0
283.15557861328125 489.0
284.1719055175781 1205.0
285.154541015625 787.0
286.17919921875 469.0
287.1676330566406 233.0
290.17431640625 268.0
291.15765380859375 410.0
292.1666564941406 451.0
293.1581726074219 280.0
294.1874694824219 1596.0
295.1968688964844 466.0
296.1766052246094 382.0
297.15313720703125 1259.0
298.1845703125 948.0
299.1789855957031 261.0
300.2041931152344 541.0
301.1800231933594 192.0
302.2159729003906 306.0
304.16107177734375 1047.0
307.17645263671875 186.0
308.2029724121094 1794.0
309.1497497558594 859.0
310.1820068359375 840.0
311.1664733886719 1141.0
312.1996154785156 2014.0
313.19970703125 198.0
314.176513671875 560.0
315.17230224609375 238.0
316.1896057128906 762.0
317.1760559082031 304.0
318.19659423828125 169.0
320.1798095703125 182.0
322.18426513671875 2294.0
323.1800231933594 321.0
324.19500732421875 694.0
325.1989440917969 226.0
326.21453857421875 6862.0
327.1657409667969 424.0
328.1971130371094 710.0
329.17919921875 1047.0
330.20355224609375 666.0
332.19818115234375 205.0
334.1988220214844 195.0
336.2029113769531 3421.0
338.20782470703125 298.0
339.1892395019531 201.0
340.2290344238281 7020.0
341.1822814941406 830.0
342.2095642089844 851.0
343.18377685546875 216.0
344.22186279296875 2432.0
346.2034912109375 336.0
350.2127380371094 280.0
354.20806884765625 20853.0
355.2150573730469 284.0
357.2041931152344 216.0
358.24200439453125 40128.0
360.21826171875 349.0
368.2234191894531 12906.0
370.240478515625 237.0
372.24951171875 12589.0
373.22760009765625 516.0
374.23138427734375 470.0
376.251220703125 6191.0
384.2225341796875 173.0
386.2359924316406 123897.0
388.2547302246094 312.0
390.26763916015625 37171.0
400.2501525878906 21508.0
404.24969482421875 4781.0
418.2625732421875 255623.0
432.2778015136719 7244.0
436.27264404296875 34627.0
450.28912353515625 86360.0
466.8560791015625 5416.0
468.2974853515625 1186209.0
469.5677795410156 4639.0
469.92669677734375 1124.0
470.0483703613281 305.0
470.16705322265625 239.0
470.38006591796875 192.0

Name: Delsoline
Precursor_mz: 468.294115
Cas: 509-18-2
Adduct: [M+H]+
Mz: 468.2955791
Comment: Minor
Smiles: CCN1C[C@]2(COC)CC[C@H](O)[C@]34C1[C@](O)([C@@H](OC)[C@H]23)[C@@]1(O)C[C@H](OC)[C@H]2C[C@@H]4[C@@H]1[C@H]2OC
Formula: C25H41NO7
Mix: Alkaloids-pos-mix18
Rt: [2.328]
Rt_apex: 2.249642331
Rt_start: 2.200783333
Rt_end: 2.283783333
Ms1_intensity: 25588
N_scnas: 12
Ms1_scan_range: [558, 565, 571]
Reci_snr: 0.014332596
Ms2_scan_idx: 1044
Pmz_offset: 0.00068734
Entropy: 1.0000001192092896
Num Peaks: 7
358.2307434082031 461.0
386.23809814453125 254.0
390.255859375 300.0
404.2489929199219 154.0
418.256103515625 539.0
436.28070068359375 389.0
468.3027648925781 6040.0

Name: Delsoline
Precursor_mz: 490.2769306
Cas: 509-18-2
Adduct: [M+Na]+
Mz: 490.2775234
Comment: Major
Smiles: CCN1C[C@]2(COC)CC[C@H](O)[C@]34C1[C@](O)([C@@H](OC)[C@H]23)[C@@]1(O)C[C@H](OC)[C@H]2C[C@@H]4[C@@H]1[C@H]2OC
Formula: C25H41NO7
Mix: Alkaloids-pos-mix18
Rt: [2.328]
Rt_apex: 2.325497866
Rt_start: 2.25495
Rt_end: 2.4691
Ms1_intensity: 27023
N_scnas: 32
Ms1_scan_range: [566, 577, 599]
Reci_snr: 0.00309831
Ms2_scan_idx: 1111
Pmz_offset: 0.001463756
Entropy: 0.9999998807907104
Num Peaks: 6
390.2561340332031 77.0
418.26214599609375 148.0
426.23260498046875 46.0
440.24713134765625 294.0
458.2597961425781 92.0
490.2811279296875 3295.0

Name: Aconine
Precursor_mz: 500.2861511
Cas: 509-20-6
Adduct: [M+H]+
Mz: 500.2854084
Comment: Major
Smiles: CCN1C[C@@]2(COC)[C@H]3[C@@H](OC)[C@H]4C1[C@]3([C@@H](OC)C[C@H]2O)[C@@H]1C[C@]2(O)[C@@H](OC)[C@H](O)[C@@]4(O)[C@H]1[C@H]2O
Formula: C25H41NO9
Mix: Alkaloids-pos-mix18
Rt: [1.837]
Rt_apex: 1.833466129
Rt_start: 1.787816667
Rt_end: 2.0943
Ms1_intensity: 8906551
N_scnas: 47
Ms1_scan_range: [494, 501, 542]
Reci_snr: 3.81e-05
Ms2_scan_idx: 786
Pmz_offset: 0.001771915
Entropy: 0.8128140568733215
Num Peaks: 353
41.03908157348633 167.0
42.03577423095703 78.0
43.017730712890625 193.0
44.04827117919922 285.0
45.03448486328125 772.0
46.06399917602539 129.0
47.04929733276367 156.0
53.0368766784668 66.0
56.048431396484375 1529.0
58.06454086303711 9500.0
59.05036163330078 161.0
67.05398559570312 200.0
69.03227996826172 118.0
70.06451416015625 59.0
71.04761505126953 362.0
72.07926177978516 247.0
75.04365539550781 1232.0
77.03955841064453 250.0
79.05291748046875 645.0
80.04798889160156 115.0
81.0328598022461 284.0
82.0644302368164 217.0
83.04752349853516 136.0
84.08021545410156 1027.0
85.0286865234375 1790.0
87.04236602783203 617.0
88.07582092285156 615.0
91.05201721191406 1120.0
93.07038879394531 224.0
94.06405639648438 288.0
95.0506820678711 701.0
96.07821655273438 563.0
97.0283203125 478.0
98.09286499023438 439.0
99.04447174072266 258.0
100.07366180419922 226.0
102.08985137939453 722.0
103.0549087524414 364.0
105.07198333740234 1015.0
106.06401062011719 105.0
107.04907989501953 727.0
108.08100128173828 1442.0
109.06658172607422 895.0
110.09490966796875 406.0
111.08368682861328 327.0
112.0768814086914 522.0
113.05809020996094 104.0
114.09003448486328 179.0
115.05439758300781 898.0
116.0591049194336 105.0
117.07121276855469 952.0
118.06332397460938 164.0
119.04736328125 436.0
120.07854461669922 184.0
121.06629943847656 799.0
122.09376525878906 1481.0
123.04460906982422 567.0
124.078857421875 210.0
125.02326202392578 2441.0
126.08782958984375 196.0
127.052490234375 295.0
128.06211853027344 989.0
129.07095336914062 2546.0
130.06454467773438 123.0
131.08602905273438 1039.0
132.08572387695312 180.0
133.06654357910156 449.0
134.09486389160156 350.0
135.0782012939453 575.0
136.07496643066406 194.0
137.0605926513672 402.0
138.09266662597656 649.0
139.04087829589844 453.0
140.1085968017578 281.0
141.06871032714844 2067.0
142.07557678222656 350.0
143.08267211914062 1145.0
144.06300354003906 169.0
145.06527709960938 804.0
146.09475708007812 496.0
147.0785369873047 720.0
148.11341857910156 164.0
149.06283569335938 275.0
150.0874786376953 124.0
151.03627014160156 271.0
152.10574340820312 2968.0
153.06784057617188 1083.0
154.07826232910156 495.0
155.0850067138672 2557.0
156.0950469970703 155.0
157.0643768310547 866.0
158.09494018554688 826.0
159.0792999267578 1205.0
160.11289978027344 589.0
161.09817504882812 480.0
162.09361267089844 272.0
163.07240295410156 229.0
164.1062774658203 131.0
165.07130432128906 1622.0
166.07711791992188 530.0
167.08779907226562 2584.0
168.0942840576172 257.0
169.10012817382812 1267.0
170.09799194335938 237.0
171.07859802246094 1232.0
172.10621643066406 1007.0
173.0944366455078 1011.0
174.126220703125 244.0
175.07192993164062 292.0
176.10586547851562 269.0
177.0924072265625 166.0
178.0760955810547 819.0
179.0850372314453 2434.0
180.0930633544922 388.0
181.1001434326172 2135.0
182.1138153076172 1242.0
183.08474731445312 1050.0
184.11538696289062 956.0
185.09353637695312 1522.0
186.12979125976562 1156.0
187.11135864257812 950.0
188.1070556640625 264.0
189.08995056152344 349.0
190.11990356445312 942.0
191.0847625732422 1532.0
192.0948486328125 560.0
193.1017303466797 1806.0
194.07608032226562 269.0
195.08030700683594 1339.0
196.09890747070312 415.0
197.09652709960938 1480.0
198.1243438720703 659.0
199.10926818847656 689.0
200.1065673828125 361.0
201.09043884277344 424.0
202.07472229003906 494.0
203.0854034423828 739.0
204.0926055908203 634.0
205.102294921875 2912.0
206.1063995361328 198.0
207.1170196533203 1207.0
208.08555603027344 378.0
209.09693908691406 1924.0
210.12705993652344 692.0
211.11074829101562 1073.0
212.14581298828125 1041.0
213.08709716796875 479.0
214.1187744140625 335.0
215.08706665039062 511.0
216.1338653564453 511.0
217.10256958007812 1462.0
218.0713653564453 359.0
219.11293029785156 970.0
220.09243774414062 396.0
221.09500122070312 1618.0
222.11865234375 368.0
223.11114501953125 2000.0
224.14364624023438 222.0
225.09432983398438 850.0
226.12718200683594 399.0
227.10531616210938 670.0
228.14065551757812 381.0
229.1018829345703 459.0
230.15240478515625 283.0
231.0773162841797 299.0
232.09173583984375 383.0
233.0998077392578 2441.0
234.10791015625 381.0
235.10958862304688 1943.0
236.1414337158203 264.0
237.13230895996094 910.0
238.12527465820312 382.0
239.10728454589844 984.0
240.14132690429688 508.0
241.1187744140625 507.0
242.15496826171875 250.0
243.0992889404297 248.0
244.17044067382812 162.0
245.09451293945312 834.0
246.10398864746094 219.0
247.1133270263672 1050.0
248.14019775390625 283.0
249.0894775390625 654.0
250.11822509765625 359.0
251.10462951660156 2028.0
252.1375274658203 461.0
253.11895751953125 892.0
254.15599060058594 232.0
255.13462829589844 348.0
256.12860107421875 159.0
257.1155090332031 334.0
258.15167236328125 165.0
259.1153869628906 188.0
260.1668701171875 196.0
261.09576416015625 647.0
262.1580810546875 199.0
263.1087341308594 1112.0
264.14093017578125 422.0
265.12255859375 1516.0
266.1609802246094 323.0
267.1394958496094 372.0
268.13360595703125 406.0
269.1203308105469 497.0
270.1457824707031 256.0
272.1446533203125 214.0
273.10394287109375 184.0
274.1230163574219 106.0
275.1044006347656 494.0
276.1365051269531 200.0
277.1285095214844 409.0
278.1527099609375 335.0
279.103759765625 755.0
280.1621398925781 259.0
281.121337890625 735.0
282.1528625488281 309.0
283.13671875 682.0
284.1672058105469 354.0
285.14508056640625 167.0
286.1412353515625 87.0
287.1319885253906 81.0
288.1482849121094 81.0
289.1258239746094 188.0
290.15521240234375 429.0
291.0954284667969 217.0
292.13067626953125 197.0
293.1221618652344 985.0
294.15380859375 288.0
295.13421630859375 654.0
296.16455078125 434.0
297.1483154296875 331.0
298.1409912109375 136.0
299.1377258300781 150.0
300.1507263183594 202.0
301.15081787109375 109.0
302.1745300292969 129.0
303.1291198730469 161.0
304.16107177734375 146.0
305.1114501953125 263.0
306.1614990234375 313.0
307.1346740722656 688.0
308.1611022949219 844.0
309.15716552734375 137.0
310.1820373535156 153.0
311.1293640136719 1372.0
312.15997314453125 314.0
313.1426086425781 395.0
314.174072265625 239.0
315.14739990234375 153.0
318.15155029296875 398.0
320.1521911621094 94.0
321.1448059082031 121.0
322.1817932128906 317.0
323.1296081542969 241.0
324.1622009277344 2323.0
325.1407470703125 773.0
326.1765441894531 413.0
327.1556091308594 132.0
328.1640930175781 153.0
329.13848876953125 604.0
330.1729736328125 299.0
331.14776611328125 173.0
334.1680603027344 95.0
335.14361572265625 86.0
336.1617736816406 901.0
337.13763427734375 126.0
338.1820373535156 305.0
339.1634216308594 244.0
340.1928405761719 459.0
341.13824462890625 91.0
342.1732482910156 721.0
343.160400390625 1157.0
345.1911315917969 112.0
346.1695861816406 139.0
347.1729431152344 134.0
348.1829833984375 374.0
350.1733703613281 565.0
352.179931640625 73.0
353.16558837890625 64.0
354.17376708984375 967.0
356.1864318847656 1037.0
357.16973876953125 225.0
358.19952392578125 404.0
360.1863098144531 1041.0
361.1697692871094 1858.0
362.19464111328125 976.0
363.1835021972656 56.0
364.1897888183594 71.0
368.1884460449219 1948.0
370.20269775390625 171.0
372.1845397949219 616.0
373.1896667480469 570.0
374.1961364746094 1619.0
375.1849365234375 340.0
376.2104187011719 970.0
377.1909484863281 64.0
378.18914794921875 294.0
382.203369140625 352.0
384.1840515136719 58.0
386.2001647949219 6026.0
388.2132873535156 701.0
389.1982727050781 66.0
390.1983642578125 598.0
392.20794677734375 7330.0
393.18963623046875 260.0
394.2226867675781 483.0
400.21368408203125 1781.0
402.1982116699219 60.0
403.2064208984375 218.0
404.2073974609375 5724.0
405.2181091308594 319.0
406.2215881347656 1133.0
408.2379455566406 232.0
410.2166748046875 383.0
414.2398681640625 102.0
416.21014404296875 59.0
418.22528076171875 32956.0
420.2395324707031 834.0
422.21826171875 412.0
432.2398986816406 946.0
435.22979736328125 131.0
436.2375183105469 14191.0
438.25347900390625 205.0
450.2504577636719 190777.0
464.2671813964844 277.0
468.2641296386719 61463.0
482.2789611816406 16399.0
498.74188232421875 4229.0
499.7295837402344 68.0
500.2881774902344 1364874.0
501.453369140625 2811.0
501.59478759765625 3272.0
501.9720458984375 980.0
502.0915222167969 196.0
502.2047424316406 91.0
502.4532165527344 110.0
502.5758972167969 85.0
502.6891784667969 80.0
502.80242919921875 56.0
503.15179443359375 73.0
503.2840270996094 101.0
503.49810791015625 74.0
503.6114807128906 72.0
503.759521484375 63.0
504.1816711425781 56.0
504.29827880859375 71.0
504.41802978515625 70.0
504.59454345703125 61.0
504.7553405761719 75.0
504.9981384277344 61.0
505.39556884765625 74.0
505.67010498046875 67.0
505.9415283203125 82.0
507.2080993652344 60.0

Name: Aconine
Precursor_mz: 522.2641225
Cas: 509-20-6
Adduct: [M+Na]+
Mz: 522.2673526
Comment: Major
Smiles: CCN1C[C@@]2(COC)[C@H]3[C@@H](OC)[C@H]4C1[C@]3([C@@H](OC)C[C@H]2O)[C@@H]1C[C@]2(O)[C@@H](OC)[C@H](O)[C@@]4(O)[C@H]1[C@H]2O
Formula: C25H41NO9
Mix: Alkaloids-pos-mix18
Rt: [1.837]
Rt_apex: 1.83789522
Rt_start: 1.780983333
Rt_end: 1.909133333
Ms1_intensity: 9428
N_scnas: 19
Ms1_scan_range: [493, 502, 513]
Reci_snr: 0.015736332
Ms2_scan_idx: 777
Pmz_offset: 0.002599372
Entropy: 1.0000001192092896
Num Peaks: 8
207.04026794433594 31.0
422.18365478515625 62.0
440.20050048828125 46.0
444.2376403808594 46.0
454.2315979003906 31.0
472.2416076660156 202.0
504.2604675292969 62.0
522.2740478515625 881.0

Name: Corydaline
Precursor_mz: 370.2003326
Cas: 518-69-4
Adduct: [M+H]+
Mz: 370.2012848
Comment: Major
Smiles: COc1cc2c(cc1OC)[C@H]1[C@@H](C)c3ccc(OC)c(OC)c3CN1CC2
Formula: C22H27NO4
Mix: Alkaloids-pos-mix18
Rt: [2.878]
Rt_apex: 2.880184176
Rt_start: 2.829066667
Rt_end: 3.0834
Ms1_intensity: 10732278
N_scnas: 37
Ms1_scan_range: [652, 660, 690]
Reci_snr: 9.77e-05
Ms2_scan_idx: 1469
Pmz_offset: 0.000762967
Entropy: 0.9772854447364807
Num Peaks: 195
41.03904724121094 204.0
42.03483200073242 314.0
43.0158576965332 174.0
45.033512115478516 393.0
55.01829528808594 231.0
57.03185272216797 268.0
59.048160552978516 199.0
75.04481506347656 277.0
77.03703308105469 3749.0
78.04788970947266 436.0
79.0528564453125 5746.0
89.03583526611328 775.0
90.0450668334961 1069.0
91.05462646484375 13729.0
92.06038665771484 313.0
93.07032012939453 1956.0
94.04357147216797 227.0
95.04924011230469 507.0
102.0472412109375 915.0
103.05482482910156 10941.0
104.06021118164062 2854.0
105.07046508789062 25903.0
106.03936004638672 279.0
107.05044555664062 8030.0
108.0546646118164 758.0
109.06356811523438 847.0
115.05280303955078 2320.0
116.06053161621094 364.0
117.0680923461914 3217.0
118.04188537597656 3524.0
119.0488052368164 2844.0
120.05846405029297 4110.0
121.06466674804688 14921.0
122.07351684570312 1796.0
123.07876586914062 1224.0
124.05531311035156 773.0
127.05081176757812 404.0
128.06201171875 634.0
129.0692596435547 625.0
130.06443786621094 3106.0
131.07147216796875 22172.0
132.0549774169922 2986.0
133.0648193359375 22340.0
134.07363891601562 14037.0
135.047119140625 14151.0
136.05194091796875 44159.0
137.0621337890625 2033.0
138.06947326660156 3271.0
139.07388305664062 1609.0
143.07081604003906 311.0
144.0595245361328 477.0
145.06854248046875 1854.0
146.07090759277344 2726.0
147.0733184814453 6990.0
148.0774383544922 47201.0
149.05929565429688 7158.0
150.06845092773438 149259.0
151.07583618164062 60489.0
152.0831298828125 973.0
153.09376525878906 323.0
156.08090209960938 437.0
157.06777954101562 617.0
158.07188415527344 993.0
159.0685577392578 10089.0
160.0754852294922 5981.0
161.08380126953125 3772.0
162.088134765625 1686.0
163.07586669921875 3186.0
164.08279418945312 25591.0
165.09100341796875 551336.0
166.0697479248047 153.0
167.1094512939453 326.0
171.0711212158203 890.0
172.0821533203125 2550.0
173.0813751220703 1133.0
174.0649871826172 2996.0
175.0699462890625 1804.0
176.07220458984375 121856.0
177.07919311523438 95450.0
178.0965576171875 1786.0
179.10743713378906 54992.0
180.09857177734375 584.0
185.08384704589844 254.0
186.09519958496094 615.0
187.09202575683594 459.0
188.08187866210938 2849.0
189.0859375 4995.0
190.08880615234375 61880.0
191.0943145751953 2403.0
192.1044158935547 1019384.0
193.14645385742188 388.0
195.0782012939453 268.0
200.0806121826172 173.0
201.11216735839844 288.0
202.08853149414062 2303.0
203.1072540283203 6019.0
204.10247802734375 43134.0
205.1121826171875 56991.0
206.12034606933594 19486.0
207.0784912109375 249.0
208.0854034423828 230.0
209.09678649902344 381.0
210.09841918945312 179.0
215.10130310058594 283.0
216.09451293945312 242.0
217.10447692871094 874.0
218.11886596679688 14713.0
219.12730407714844 2532.0
220.1339111328125 226.0
221.09690856933594 425.0
223.0774383544922 189.0
225.092041015625 342.0
231.07928466796875 386.0
232.09156799316406 512.0
233.0974884033203 655.0
234.10987854003906 283.0
235.11155700683594 598.0
236.08734130859375 231.0
237.08676147460938 733.0
238.10560607910156 462.0
239.11361694335938 165.0
240.10853576660156 201.0
245.09872436523438 546.0
246.10379028320312 403.0
247.11093139648438 457.0
248.08033752441406 383.0
249.09593200683594 1313.0
250.09140014648438 954.0
251.11109924316406 745.0
252.1195068359375 309.0
253.08750915527344 537.0
254.10211181640625 345.0
260.0987548828125 251.0
261.08648681640625 578.0
262.1056213378906 919.0
263.1085205078125 2341.0
264.11334228515625 1664.0
265.1177978515625 1166.0
267.1048889160156 403.0
268.1150207519531 459.0
269.1178283691406 308.0
274.09490966796875 196.0
275.1111755371094 877.0
276.11065673828125 1121.0
277.12127685546875 1554.0
278.1220703125 1409.0
279.10589599609375 1764.0
280.11260986328125 1231.0
281.1187744140625 893.0
282.1196594238281 600.0
283.13177490234375 411.0
284.1669921875 268.0
288.1004333496094 587.0
289.1184387207031 533.0
290.12152099609375 745.0
291.0951843261719 1135.0
292.10888671875 3040.0
293.1195373535156 5303.0
294.12469482421875 1705.0
295.131591796875 2782.0
296.1329345703125 1562.0
297.14569091796875 1088.0
298.1407470703125 287.0
299.1326599121094 235.0
304.10211181640625 198.0
305.1136779785156 803.0
306.1121826171875 3637.0
307.1344299316406 5609.0
308.1263732910156 4552.0
309.1495361328125 1712.0
310.1471862792969 3003.0
311.129150390625 2418.0
312.15478515625 5295.0
320.14190673828125 739.0
321.1470947265625 601.0
322.1462707519531 30433.0
323.1318664550781 8975.0
326.17376708984375 12391.0
327.1604309082031 294.0
336.1640930175781 2309.0
337.1683044433594 418.0
339.1476745605469 781.0
340.158935546875 27474.0
341.1742858886719 1481.0
352.1585998535156 352.0
353.1732482910156 2198.0
354.1734924316406 76342.0
355.1804504394531 31614.0
368.19354248046875 3250.0
369.0638427734375 2839.0
370.2051086425781 946051.0
371.1994323730469 2083.0
371.3319396972656 2000.0
371.65380859375 638.0
371.7566223144531 227.0

Name: Dauricine
Precursor_mz: 625.328684
Cas: 524-17-4
Adduct: [M+H]+
Mz: 625.3272136
Comment: Major
Smiles: COc1cc2c(cc1OC)[C@@H](Cc1ccc(Oc3cc(C[C@@H]4c5cc(OC)c(OC)cc5CCN4C)ccc3O)cc1)N(C)CC2
Formula: C38H44N2O6
Mix: Alkaloids-pos-mix18
Rt: [2.384]
Rt_apex: 2.383113238
Rt_start: 2.343933333
Rt_end: 2.8894
Ms1_intensity: 1274253
N_scnas: 80
Ms1_scan_range: [580, 586, 661]
Reci_snr: 0.003342788
Ms2_scan_idx: 1196
Pmz_offset: 0.002633675
Entropy: 1.0000001192092896
Num Peaks: 25
151.07412719726562 271.0
165.08921813964844 449.0
175.06996154785156 222.0
177.09042358398438 264.0
189.08982849121094 832.0
190.0888214111328 173.0
192.10055541992188 264.0
204.10049438476562 646.0
205.1142120361328 173.0
206.1183624267578 10343.0
213.08901977539062 233.0
218.12303161621094 195.0
254.1312255859375 187.0
266.1356506347656 243.0
269.124755859375 385.0
281.12115478515625 325.0
376.1693420410156 240.0
418.1963195800781 204.0
419.2157287597656 827.0
420.2335205078125 172.0
551.2500610351562 606.0
563.2421264648438 197.0
582.2846069335938 2578.0
594.2861938476562 3042.0
625.3345336914062 26630.0

Name: Dauricine
Precursor_mz: 647.3056869
Cas: 524-17-4
Adduct: [M+Na]+
Mz: 647.3091578
Comment: Major
Smiles: COc1cc2c(cc1OC)[C@@H](Cc1ccc(Oc3cc(C[C@@H]4c5cc(OC)c(OC)cc5CCN4C)ccc3O)cc1)N(C)CC2
Formula: C38H44N2O6
Mix: Alkaloids-pos-mix18
Rt: [2.384]
Rt_apex: 2.382458394
Rt_start: 2.350433333
Rt_end: 2.565416667
Ms1_intensity: 10545
N_scnas: 31
Ms1_scan_range: [581, 586, 613]
Reci_snr: 0.007479804
Ms2_scan_idx: 1178
Pmz_offset: 0.001895346
Entropy: 0.8244394063949585
Num Peaks: 3
214.09161376953125 92.0
441.2100524902344 62.0
647.2985229492188 385.0

Name: Coixol
Precursor_mz: 166.0500059
Cas: 532-91-2
Adduct: [M+H]+
Mz: 166.0498695
Comment: Major
Smiles: COc1ccc2[nH]c(=O)oc2c1
Formula: C8H7NO3
Mix: Alkaloids-pos-mix18
Rt: [2.495]
Rt_apex: 2.495849106
Rt_start: 2.448933333
Rt_end: 2.626916667
Ms1_intensity: 249126
N_scnas: 25
Ms1_scan_range: [596, 603, 622]
Reci_snr: 0.002198378
Ms2_scan_idx: 1241
Pmz_offset: 0.001769432
Entropy: 0.9999999403953552
Num Peaks: 30
41.038177490234375 995.0
50.0141487121582 676.0
51.022560119628906 1406.0
52.03091812133789 4078.0
53.025630950927734 123.0
63.024253845214844 197.0
65.03765869140625 1411.0
67.04248809814453 3261.0
77.02477264404297 154.0
78.03430938720703 1124.0
79.04167938232422 949.0
80.02664184570312 635.0
82.06060791015625 268.0
90.03580474853516 92.0
92.04563903808594 154.0
93.05684661865234 154.0
94.030029296875 360.0
95.03699493408203 5405.0
106.0293197631836 2928.0
107.03600311279297 4549.0
110.05956268310547 6639.0
120.04470825195312 202.0
121.05393981933594 319.0
122.05809783935547 940.0
123.04304504394531 565.0
133.01150512695312 92.0
134.0233612060547 123.0
138.0514373779297 591.0
151.0259246826172 2147.0
166.0499725341797 2644.0

Name: Synephrine hydrochloride
Precursor_mz: 168.1003219
Cas: 5985-28-4
Adduct: [M+H]+
Mz: 168.1019051
Comment: Major
Smiles: CNCC(O)c1ccc(O)cc1
Formula: C9H13NO2
Mix: Alkaloids-pos-mix18
Rt: [0.342]
Rt_apex: 0.335151663
Rt_start: 0.313083333
Rt_end: 0.3854
Ms1_intensity: 45597
N_scnas: 11
Ms1_scan_range: [100, 104, 112]
Reci_snr: 0.003700318
Ms2_scan_idx: 167
Pmz_offset: 0.000953963
Entropy: 0.9942232966423035
Num Peaks: 30
42.034759521484375 1407.0
51.022438049316406 550.0
55.0181999206543 196.0
56.04829025268555 274.0
57.05613327026367 251.0
65.03976440429688 936.0
77.03813171386719 4036.0
79.05396270751953 1133.0
81.07056427001953 188.0
89.03965759277344 551.0
90.0435791015625 347.0
91.0544662475586 6206.0
92.04811096191406 433.0
94.03932189941406 430.0
103.05322265625 443.0
105.07172393798828 92.0
106.06230163574219 855.0
107.05026245117188 9287.0
108.05593872070312 608.0
109.0633773803711 256.0
117.05877685546875 593.0
118.06150817871094 701.0
119.05013275146484 818.0
120.04288482666016 941.0
121.064453125 463.0
132.08216857910156 123.0
134.06202697753906 3084.0
135.06808471679688 3999.0
149.08644104003906 92.0
150.0905303955078 1988.0

Name: Synephrine hydrochloride
Precursor_mz: 168.0999083
Cas: 5985-28-4
Adduct: [M+H]+
Mz: 168.1019051
Comment: isomer
Smiles: CNCC(O)c1ccc(O)cc1
Formula: C9H13NO2
Mix: Alkaloids-pos-mix18
Rt: [0.342]
Rt_apex: 0.429430932
Rt_start: 0.3854
Rt_end: 0.525566667
Ms1_intensity: 8157
N_scnas: 28
Ms1_scan_range: [112, 122, 141]
Reci_snr: 0.020802762
Ms2_scan_idx: 188
Pmz_offset: 0.001367504
Entropy: 0.9831628203392029
Num Peaks: 22
42.033851623535156 209.0
57.05507278442383 93.0
65.03976440429688 231.0
77.04059600830078 773.0
79.05271911621094 169.0
81.07308959960938 93.0
89.03965759277344 154.0
91.05848693847656 1462.0
92.05484008789062 92.0
94.04204559326172 168.0
106.0637435913086 216.0
107.05026245117188 2574.0
108.05885314941406 253.0
109.0648422241211 154.0
117.05725860595703 376.0
119.05166625976562 283.0
120.04441833496094 290.0
121.064453125 219.0
132.0837860107422 93.0
134.05877685546875 730.0
135.0664520263672 1123.0
150.09568786621094 774.0

Name: Coptisine chloride
Precursor_mz: 320.0910884
Cas: 6020-18-4
Adduct: [M]+
Mz: 320.0917344
Comment: Major
Smiles: c1c2c(cc3c1OCO3)-c1cc3ccc4c(c3c[n+]1CC2)OCO4
Formula: C19H14NO4+
Mix: Alkaloids-pos-mix19
Rt: [2.661]
Rt_apex: 2.659192679
Rt_start: 2.6174
Rt_end: 2.940883333
Ms1_intensity: 3802249
N_scnas: 49
Ms1_scan_range: [679, 685, 729]
Reci_snr: 0.002146955
Ms2_scan_idx: 1259
Pmz_offset: 0.000503169
Entropy: 0.9960393905639648
Num Peaks: 105
91.05302429199219 195.0
103.05311584472656 195.0
107.04724884033203 197.0
115.052490234375 428.0
116.0466079711914 353.0
128.04737854003906 202.0
131.0502471923828 313.0
132.0401153564453 232.0
133.0531463623047 342.0
140.0500030517578 206.0
144.0439910888672 347.0
150.04571533203125 387.0
151.05474853515625 1664.0
152.0619659423828 444.0
153.06211853027344 198.0
154.06381225585938 288.0
156.04368591308594 317.0
158.0591278076172 383.0
159.0469207763672 186.0
161.04420471191406 251.0
163.05575561523438 601.0
164.06260681152344 379.0
165.0653533935547 625.0
167.07818603515625 455.0
174.04603576660156 183.0
175.05279541015625 345.0
176.0643310546875 4801.0
177.0731658935547 2664.0
178.07177734375 2994.0
179.08633422851562 1266.0
180.0849609375 239.0
181.06556701660156 380.0
183.06707763671875 786.0
188.04678344726562 236.0
189.07005310058594 2634.0
190.06900024414062 2640.0
191.07444763183594 10488.0
192.0806121826172 1814.0
193.09527587890625 189.0
195.0679168701172 807.0
201.05796813964844 469.0
202.07009887695312 2434.0
203.07276916503906 15091.0
204.0839385986328 106050.0
205.08958435058594 10692.0
206.09971618652344 7885.0
207.08001708984375 912.0
208.07275390625 419.0
209.0557098388672 214.0
211.06727600097656 334.0
214.0667724609375 226.0
215.07199096679688 1204.0
216.07955932617188 3194.0
217.08534240722656 3313.0
218.068603515625 1172.0
219.07070922851562 37556.0
220.07717895507812 23679.0
221.08387756347656 7435.0
222.0865936279297 349.0
223.0643310546875 255.0
230.06654357910156 264.0
231.0723419189453 1725.0
232.08033752441406 39089.0
233.08624267578125 77192.0
234.0943145751953 136859.0
235.1002655029297 6240.0
236.10836791992188 6550.0
244.0775909423828 1575.0
245.08717346191406 554.0
246.09222412109375 4429.0
247.0662384033203 46133.0
248.0709228515625 61647.0
249.08206176757812 106266.0
250.08639526367188 494.0
259.067138671875 554.0
260.0755615234375 9280.0
261.08135986328125 23448.0
262.0891418457031 253481.0
263.0965576171875 18117.0
264.1059265136719 51728.0
274.08734130859375 5088.0
275.0639953613281 11947.0
276.06805419921875 11520.0
277.07861328125 197824.0
278.0910339355469 499.0
288.0688171386719 4944.0
289.0772399902344 415.0
290.08502197265625 121740.0
291.0921630859375 15655.0
292.1034240722656 399842.0
294.0807189941406 179.0
303.059814453125 3931.0
304.0647277832031 234.0
305.0713195800781 12265.0
316.0664367675781 395.0
318.0830383300781 109592.0
319.1175537109375 4640.0
320.0985412597656 737306.0
321.0281982421875 1934.0
321.1463928222656 2347.0
321.4407043457031 597.0
321.5438537597656 236.0
321.8157043457031 212.0
322.0271911621094 161.0
322.6949157714844 179.0

Name: L-Hyoscyamine sulfate
Precursor_mz: 290.1746884
Cas: 620-61-1
Adduct: [M+H]+
Mz: 290.1750701
Comment: Major
Smiles: CN1[C@H]2CC[C@@H]1C[C@H](OC(=O)[C@H](CO)c1ccccc1)C2
Formula: C17H23NO3
Mix: Alkaloids-pos-mix19
Rt: [2.123]
Rt_apex: 2.122161245
Rt_start: 2.064783333
Rt_end: 2.434916667
Ms1_intensity: 7005266
N_scnas: 54
Ms1_scan_range: [596, 605, 651]
Reci_snr: 1.66e-05
Ms2_scan_idx: 862
Pmz_offset: 0.000519335
Entropy: 0.9959892630577087
Num Peaks: 60
41.03978729248047 6984.0
42.03466796875 3563.0
43.019371032714844 294.0
44.049930572509766 10186.0
50.0139274597168 215.0
51.02434158325195 3377.0
53.0386848449707 861.0
55.054534912109375 1880.0
56.05028533935547 3582.0
57.058143615722656 4934.0
58.066429138183594 2268.0
65.03851318359375 5241.0
67.05485534667969 90354.0
68.05024719238281 14651.0
69.07047271728516 601.0
70.06657409667969 15776.0
77.03923797607422 137533.0
78.04515075683594 1130.0
79.05633544921875 8778.0
80.04766082763672 1907.0
81.06916809082031 1393.0
82.06664276123047 40106.0
83.07405090332031 14982.0
86.06282806396484 304.0
91.05567169189453 313040.0
93.07138061523438 720900.0
94.06504821777344 6996.0
95.08451843261719 30709.0
96.08197021484375 24529.0
97.09153747558594 1450.0
98.0966567993164 10205.0
102.0440902709961 563.0
103.0559310913086 79654.0
105.04713439941406 1195.0
107.08642578125 1644.0
108.0820541381836 4695.0
109.08961486816406 5999.0
110.0974349975586 468.0
111.08030700683594 642.0
121.06584930419922 27131.0
122.0964126586914 2292.0
124.11434936523438 890413.0
125.12323760986328 8380.0
126.09051513671875 298.0
129.06729125976562 359.0
131.04859924316406 607.0
140.10975646972656 7896.0
141.0698699951172 185.0
142.125244140625 37981.0
149.06915283203125 195.0
183.1201934814453 204.0
214.16322326660156 2119.0
242.1585235595703 806.0
259.1574401855469 701.0
260.16827392578125 9541.0
272.1669006347656 384.0
289.28955078125 1716.0
290.1853332519531 541465.0
291.1734924316406 910.0
291.472900390625 385.0

Name: L-Hyoscyamine sulfate
Precursor_mz: 312.1540852
Cas: 620-61-1
Adduct: [M+Na]+
Mz: 312.1570143
Comment: Major
Smiles: CN1[C@H]2CC[C@@H]1C[C@H](OC(=O)[C@H](CO)c1ccccc1)C2
Formula: C17H23NO3
Mix: Alkaloids-pos-mix19
Rt: [2.123]
Rt_apex: 2.136882452
Rt_start: 2.085433333
Rt_end: 2.176933333
Ms1_intensity: 9413
N_scnas: 13
Ms1_scan_range: [599, 607, 613]
Reci_snr: 0.100952946
Ms2_scan_idx: 852
Pmz_offset: 0.002253595
Entropy: 1.0
Num Peaks: 4
81.05780029296875 93.0
93.0727310180664 123.0
96.08334350585938 612.0
124.11434936523438 1528.0

Name: Berberine hydrogen sulphate
Precursor_mz: 336.1242104
Cas: 633-66-9
Adduct: [M]+
Mz: 336.1230345
Comment: Major
Smiles: COc1ccc2cc3[n+](cc2c1OC)CCc1cc2c(cc1-3)OCO2
Formula: C20H18NO4+
Mix: Alkaloids-pos-mix19
Rt: [2.942, 2.682]
Rt_apex: 2.941019049
Rt_start: 2.881716667
Rt_end: 4.1018
Ms1_intensity: 5165202
N_scnas: 190
Ms1_scan_range: [720, 729, 911]
Reci_snr: 0.003206656
Ms2_scan_idx: 1476
Pmz_offset: 0.002736214
Entropy: 0.9951164126396179
Num Peaks: 80
139.05532836914062 192.0
150.05088806152344 192.0
151.05303955078125 389.0
163.05577087402344 390.0
164.0626220703125 473.0
165.0689697265625 535.0
166.06573486328125 197.0
176.0587615966797 352.0
177.0638427734375 447.0
178.06617736816406 497.0
189.06813049316406 506.0
190.0690155029297 1094.0
191.07447814941406 3626.0
192.07675170898438 1284.0
202.0621337890625 632.0
203.0727996826172 463.0
204.08596801757812 3327.0
205.05545043945312 1035.0
206.0997314453125 611.0
207.06387329101562 732.0
215.07200622558594 283.0
216.07957458496094 1181.0
217.08950805664062 2180.0
218.093505859375 573.0
219.0686492919922 2758.0
220.07720947265625 6656.0
221.08807373046875 671.0
222.09080505371094 622.0
225.08734130859375 489.0
231.07237243652344 679.0
232.07821655273438 2621.0
233.079833984375 4043.0
234.09432983398438 8335.0
235.06155395507812 2352.0
236.10623168945312 1343.0
244.07542419433594 327.0
245.0872039794922 1332.0
246.09445190429688 3743.0
247.06626892089844 1621.0
248.07095336914062 10892.0
249.0843048095703 9495.0
250.08863830566406 4018.0
258.09906005859375 186.0
259.0603942871094 296.0
260.071044921875 5273.0
261.0813903808594 3161.0
262.0868835449219 21414.0
263.0738220214844 21347.0
264.1036682128906 9338.0
265.1195068359375 204.0
273.0799560546875 182.0
274.0896911621094 9809.0
275.09893798828125 82030.0
276.1007385253906 5878.0
277.0786437988281 23549.0
278.08636474609375 544730.0
288.06646728515625 1716.0
289.0772705078125 5956.0
290.0850524902344 18028.0
291.0921936035156 35477.0
292.10107421875 768313.0
293.1116943359375 958.0
302.0907287597656 817.0
303.08673095703125 1555.0
304.0990295410156 295227.0
305.0738220214844 3134.0
306.0820617675781 259639.0
308.13067626953125 187.0
316.0739440917969 233.0
317.1051940917969 423.0
318.08056640625 233195.0
319.11761474609375 2607.0
320.0935363769531 807613.0
321.1036682128906 424114.0
322.1053161621094 206.0
335.09130859375 2198.0
336.12994384765625 517361.0
337.2758483886719 734.0
337.5078430175781 377.0
337.6083984375 293.0

Name: N-trans-Feruloyltyramine
Precursor_mz: 314.1393123
Cas: 66648-43-9
Adduct: [M+H]+
Mz: 314.1386845
Comment: Major
Smiles: COc1cc(/C=C/C(=O)NCCc2ccc(O)cc2)ccc1O
Formula: C18H19NO4
Mix: Alkaloids-pos-mix19
Rt: [2.915]
Rt_apex: 2.913887505
Rt_start: 2.874883333
Rt_end: 3.2047
Ms1_intensity: 677134
N_scnas: 49
Ms1_scan_range: [719, 725, 769]
Reci_snr: 0.000130055
Ms2_scan_idx: 1453
Pmz_offset: 0.001308462
Entropy: 0.9964622855186462
Num Peaks: 30
63.02064895629883 154.0
65.0362548828125 154.0
77.03924560546875 13692.0
78.04639434814453 758.0
89.03820037841797 19518.0
91.05433654785156 19780.0
93.07003021240234 15343.0
95.0503158569336 379.0
101.03723907470703 230.0
102.04267120361328 596.0
103.05451202392578 19611.0
105.04281616210938 241.0
106.04193115234375 1344.0
107.04866790771484 225.0
117.03433990478516 45481.0
119.04845428466797 568.0
120.05810546875 92.0
121.06584930419922 79178.0
134.03587341308594 2616.0
136.05154418945312 356.0
144.04563903808594 92.0
145.02926635742188 76649.0
149.05886840820312 8255.0
151.0736846923828 215.0
162.030517578125 346.0
177.054443359375 89443.0
194.07736206054688 804.0
204.06182861328125 335.0
220.0979461669922 194.0
314.1432189941406 5104.0

Name: N-trans-Feruloyltyramine
Precursor_mz: 314.1377923
Cas: 66648-43-9
Adduct: [M+H]+
Mz: 314.1386845
Comment: isomer
Smiles: COc1cc(/C=C/C(=O)NCCc2ccc(O)cc2)ccc1O
Formula: C18H19NO4
Mix: Alkaloids-pos-mix19
Rt: [2.915]
Rt_apex: 2.80783582
Rt_start: 2.774066667
Rt_end: 2.86105
Ms1_intensity: 48759
N_scnas: 12
Ms1_scan_range: [704, 709, 717]
Reci_snr: 0.001460006
Ms2_scan_idx: 1376
Pmz_offset: 0.002828474
Entropy: 1.0000001192092896
Num Peaks: 13
77.0379409790039 840.0
89.03811645507812 1318.0
91.05425262451172 598.0
93.06993865966797 825.0
103.05441284179688 843.0
106.0389404296875 123.0
117.03119659423828 2161.0
121.06574249267578 3661.0
134.04063415527344 123.0
145.02743530273438 3219.0
149.0552978515625 463.0
177.05615234375 2148.0
314.137939453125 154.0

Name: N-trans-Feruloyltyramine
Precursor_mz: 336.1242104
Cas: 66648-43-9
Adduct: [M+Na]+
Mz: 336.1206288
Comment: Major
Smiles: COc1cc(/C=C/C(=O)NCCc2ccc(O)cc2)ccc1O
Formula: C18H19NO4
Mix: Alkaloids-pos-mix19
Rt: [2.915]
Rt_apex: 2.941019049
Rt_start: 2.881716667
Rt_end: 4.1018
Ms1_intensity: 5165202
N_scnas: 190
Ms1_scan_range: [720, 729, 911]
Reci_snr: 0.003206656
Ms2_scan_idx: 1476
Pmz_offset: 0.002736214
Entropy: 0.9951164126396179
Num Peaks: 80
139.05532836914062 192.0
150.05088806152344 192.0
151.05303955078125 389.0
163.05577087402344 390.0
164.0626220703125 473.0
165.0689697265625 535.0
166.06573486328125 197.0
176.0587615966797 352.0
177.0638427734375 447.0
178.06617736816406 497.0
189.06813049316406 506.0
190.0690155029297 1094.0
191.07447814941406 3626.0
192.07675170898438 1284.0
202.0621337890625 632.0
203.0727996826172 463.0
204.08596801757812 3327.0
205.05545043945312 1035.0
206.0997314453125 611.0
207.06387329101562 732.0
215.07200622558594 283.0
216.07957458496094 1181.0
217.08950805664062 2180.0
218.093505859375 573.0
219.0686492919922 2758.0
220.07720947265625 6656.0
221.08807373046875 671.0
222.09080505371094 622.0
225.08734130859375 489.0
231.07237243652344 679.0
232.07821655273438 2621.0
233.079833984375 4043.0
234.09432983398438 8335.0
235.06155395507812 2352.0
236.10623168945312 1343.0
244.07542419433594 327.0
245.0872039794922 1332.0
246.09445190429688 3743.0
247.06626892089844 1621.0
248.07095336914062 10892.0
249.0843048095703 9495.0
250.08863830566406 4018.0
258.09906005859375 186.0
259.0603942871094 296.0
260.071044921875 5273.0
261.0813903808594 3161.0
262.0868835449219 21414.0
263.0738220214844 21347.0
264.1036682128906 9338.0
265.1195068359375 204.0
273.0799560546875 182.0
274.0896911621094 9809.0
275.09893798828125 82030.0
276.1007385253906 5878.0
277.0786437988281 23549.0
278.08636474609375 544730.0
288.06646728515625 1716.0
289.0772705078125 5956.0
290.0850524902344 18028.0
291.0921936035156 35477.0
292.10107421875 768313.0
293.1116943359375 958.0
302.0907287597656 817.0
303.08673095703125 1555.0
304.0990295410156 295227.0
305.0738220214844 3134.0
306.0820617675781 259639.0
308.13067626953125 187.0
316.0739440917969 233.0
317.1051940917969 423.0
318.08056640625 233195.0
319.11761474609375 2607.0
320.0935363769531 807613.0
321.1036682128906 424114.0
322.1053161621094 206.0
335.09130859375 2198.0
336.12994384765625 517361.0
337.2758483886719 734.0
337.5078430175781 377.0
337.6083984375 293.0

Name: Isoliensinine
Precursor_mz: 611.3116926
Cas: 6817-41-0
Adduct: [M+H]+
Mz: 611.3115635
Comment: Major
Smiles: COc1ccc(C[C@@H]2c3cc(Oc4cc(C[C@@H]5c6cc(O)c(OC)cc6CCN5C)ccc4O)c(OC)cc3CCN2C)cc1
Formula: C37H42N2O6
Mix: Alkaloids-pos-mix19
Rt: [2.24]
Rt_apex: 2.242401425
Rt_start: 2.170433333
Rt_end: 2.454416667
Ms1_intensity: 1228132
N_scnas: 41
Ms1_scan_range: [612, 623, 654]
Reci_snr: 0.001572499
Ms2_scan_idx: 937
Pmz_offset: 0.000675783
Entropy: 0.9864422678947449
Num Peaks: 65
115.05243682861328 204.0
117.0692367553711 194.0
121.06582641601562 2841.0
135.08094787597656 1001.0
137.0617218017578 387.0
143.05023193359375 793.0
148.07357788085938 434.0
149.08453369140625 203.0
151.07192993164062 303.0
160.0767822265625 189.0
161.0619354248047 173.0
162.09121704101562 342.0
163.09689331054688 270.0
174.09410095214844 741.0
175.0768585205078 827.0
176.1089324951172 2172.0
177.07867431640625 2972.0
178.0885467529297 271.0
190.0824432373047 403.0
191.09764099121094 196.0
192.10191345214844 65425.0
221.10255432128906 212.0
235.07432556152344 294.0
237.09474182128906 254.0
239.07606506347656 248.0
241.08523559570312 246.0
249.08859252929688 336.0
251.10595703125 370.0
253.11807250976562 296.0
254.1304931640625 807.0
255.10009765625 348.0
266.1325988769531 1405.0
267.13629150390625 229.0
268.1142883300781 270.0
269.08026123046875 165.0
271.09368896484375 276.0
281.11566162109375 396.0
283.1144714355469 440.0
295.16455078125 263.0
297.1715087890625 905.0
298.147216796875 378.0
312.16387939453125 363.0
416.1744079589844 229.0
418.2181701660156 172.0
419.2174987792969 1194.0
432.18304443359375 1452.0
444.1829528808594 451.0
446.1934509277344 643.0
447.19598388671875 1148.0
457.2109680175781 177.0
459.22967529296875 409.0
460.2135925292969 750.0
473.2103576660156 1771.0
474.2060852050781 1138.0
475.2273254394531 13908.0
489.24896240234375 1214.0
490.25518798828125 956.0
537.2269287109375 497.0
548.2510375976562 186.0
549.22412109375 239.0
566.2721557617188 270.0
568.2676391601562 2966.0
579.2933959960938 215.0
580.2800903320312 3749.0
611.3119506835938 99716.0

Name: Isoliensinine
Precursor_mz: 633.2965045
Cas: 6817-41-0
Adduct: [M+Na]+
Mz: 633.2935078
Comment: Major
Smiles: COc1ccc(C[C@@H]2c3cc(Oc4cc(C[C@@H]5c6cc(O)c(OC)cc6CCN5C)ccc4O)c(OC)cc3CCN2C)cc1
Formula: C37H42N2O6
Mix: Alkaloids-pos-mix19
Rt: [2.24]
Rt_apex: 2.242735354
Rt_start: 2.210766667
Rt_end: 2.297433333
Ms1_intensity: 6294
N_scnas: 12
Ms1_scan_range: [618, 623, 631]
Reci_snr: 0.007880975
Ms2_scan_idx: 943
Pmz_offset: 0.004839116
Entropy: 1.0
Num Peaks: 5
192.10000610351562 93.0
305.10064697265625 154.0
441.18603515625 93.0
497.2058410644531 812.0
633.2927856445312 508.0

Name: Deltaline
Precursor_mz: 508.2925955
Cas: 11/9/36
Adduct: [M+H]+
Mz: 508.2904937
Comment: Major
Smiles: CCN1C[C@]2(C)CC[C@H](OC)[C@@]34[C@H]1[C@]1(OCO[C@@]15C[C@H](OC)[C@H]1C[C@]3(O)[C@@H]5[C@H]1OC)[C@@H](OC(C)=O)[C@H]24
Formula: C27H41NO8
Mix: Alkaloids-pos-mix19
Rt: [2.455]
Rt_apex: 2.455207445
Rt_start: 2.40725
Rt_end: 2.59675
Ms1_intensity: 14799824
N_scnas: 28
Ms1_scan_range: [647, 654, 676]
Reci_snr: 8.67e-06
Ms2_scan_idx: 1104
Pmz_offset: 0.003693201
Entropy: 0.9294672012329102
Num Peaks: 366
41.03893280029297 909.0
42.03380584716797 454.0
43.017578125 488.0
44.049049377441406 701.0
45.034332275390625 307.0
46.06574630737305 251.0
47.04914093017578 1349.0
53.04079055786133 138.0
55.054595947265625 483.0
56.04825210571289 2185.0
58.065425872802734 15677.0
59.04909896850586 165.0
60.08018493652344 95.0
68.04685974121094 144.0
69.03324127197266 217.0
70.06547546386719 807.0
71.04976654052734 8965.0
72.08023834228516 2461.0
75.0446548461914 24191.0
79.0539321899414 917.0
80.04901123046875 536.0
81.07052612304688 929.0
82.06419372558594 4397.0
83.04984283447266 816.0
84.08126831054688 2045.0
85.0284423828125 1363.0
86.09808349609375 465.0
88.07952117919922 323.0
91.054443359375 3537.0
94.06243896484375 996.0
96.08208465576172 1252.0
98.09677124023438 9025.0
100.0761947631836 1914.0
102.0881576538086 191.0
103.05462646484375 298.0
105.06883239746094 2575.0
106.06661987304688 147.0
107.04878997802734 5004.0
108.08071899414062 1825.0
110.09756469726562 101637.0
112.07659149169922 1749.0
113.06077575683594 180.0
114.09123229980469 1056.0
115.0541000366211 994.0
116.0724105834961 616.0
117.06939697265625 1709.0
119.05011749267578 969.0
120.07823944091797 376.0
121.06444549560547 1304.0
122.09654998779297 11760.0
123.10501098632812 1116.0
124.11293029785156 8789.0
125.06060028076172 1445.0
126.09223937988281 760.0
127.05374908447266 293.0
128.06497192382812 1367.0
129.07061767578125 2242.0
130.08021545410156 433.0
131.08409118652344 3194.0
132.0789337158203 167.0
133.06297302246094 1074.0
134.0961456298828 732.0
135.0811309814453 676.0
136.11392211914062 976.0
137.06190490722656 1785.0
138.09066772460938 2351.0
139.0769500732422 264.0
140.1049346923828 504.0
141.068359375 1272.0
142.08192443847656 836.0
143.0873565673828 3618.0
144.0811767578125 239.0
145.09872436523438 1721.0
146.09779357910156 485.0
147.0781707763672 1423.0
148.11306762695312 1147.0
149.09674072265625 1560.0
150.09397888183594 632.0
151.07557678222656 933.0
152.1088409423828 716.0
153.07093811035156 816.0
154.08311462402344 646.0
155.0846405029297 2480.0
156.09817504882812 358.0
157.10093688964844 1690.0
158.09278869628906 334.0
159.07891845703125 2103.0
160.11073303222656 1690.0
161.0977783203125 2354.0
162.12718200683594 687.0
163.0738067626953 893.0
164.10769653320312 868.0
165.07090759277344 1353.0
166.07310485839844 620.0
167.08377075195312 2753.0
168.09205627441406 565.0
169.0997314453125 2177.0
170.09393310546875 234.0
171.0800323486328 2035.0
172.11500549316406 940.0
173.09217834472656 1839.0
174.1295166015625 1085.0
175.11422729492188 682.0
176.1091766357422 712.0
177.0919952392578 535.0
178.0738067626953 662.0
179.08837890625 2043.0
180.0945281982422 991.0
181.1016082763672 3839.0
182.11529541015625 282.0
183.11849975585938 2084.0
184.10353088378906 421.0
185.0988311767578 2124.0
186.1255340576172 970.0
187.074462890625 800.0
188.1431884765625 1268.0
189.08758544921875 595.0
190.12527465820312 903.0
191.08819580078125 843.0
192.09829711914062 870.0
193.10324096679688 3285.0
194.11082458496094 720.0
195.11317443847656 3589.0
196.1122283935547 514.0
197.1000213623047 1787.0
198.12388610839844 526.0
199.11277770996094 3032.0
200.1140594482422 758.0
201.1198272705078 1052.0
202.15406799316406 1286.0
203.09695434570312 705.0
204.1402587890625 2256.0
205.1038360595703 1438.0
206.154296875 2058.0
207.11654663085938 3734.0
208.12557983398438 396.0
209.13096618652344 3472.0
210.1143798828125 453.0
211.11436462402344 2686.0
212.14125061035156 1105.0
213.13169860839844 1556.0
214.1265106201172 2942.0
215.11334228515625 1225.0
216.13751220703125 2306.0
217.10208129882812 674.0
218.15377807617188 1989.0
219.11659240722656 6201.0
220.1335906982422 447.0
221.13206481933594 3959.0
222.1118927001953 524.0
223.11903381347656 2841.0
224.14105224609375 605.0
225.12962341308594 1846.0
226.12457275390625 722.0
227.14923095703125 1016.0
228.14227294921875 2040.0
229.14385986328125 1833.0
230.15615844726562 4314.0
231.11521911621094 1600.0
232.1339874267578 1821.0
233.1271514892578 1569.0
234.10740661621094 528.0
235.11337280273438 3119.0
236.14306640625 591.0
237.129638671875 5199.0
238.1615753173828 902.0
239.1414794921875 2180.0
240.17343139648438 1091.0
241.12478637695312 1394.0
242.1915740966797 1145.0
243.13815307617188 847.0
244.13482666015625 622.0
245.13352966308594 436.0
246.15188598632812 1618.0
247.11720275878906 1064.0
248.137451171875 681.0
249.13101196289062 5482.0
250.1576385498047 972.0
251.14410400390625 2900.0
252.17263793945312 1160.0
253.12734985351562 1372.0
254.15768432617188 1390.0
255.1587371826172 2002.0
256.17071533203125 4628.0
257.1487121582031 477.0
258.15338134765625 1269.0
259.112548828125 524.0
260.1685791015625 623.0
261.1337585449219 586.0
262.1552429199219 509.0
263.1423034667969 636.0
264.17913818359375 350.0
265.12200927734375 2079.0
266.190185546875 2602.0
267.1412353515625 1908.0
268.1720886230469 5804.0
269.1565856933594 1605.0
270.18212890625 2051.0
271.1356506347656 566.0
272.1649169921875 5478.0
273.1683044433594 395.0
274.1875 710.0
275.13409423828125 206.0
276.1849060058594 807.0
277.1255798339844 1302.0
278.1591491699219 928.0
279.1383361816406 1906.0
281.1607360839844 1647.0
282.1852722167969 1172.0
283.15972900390625 1404.0
284.1666259765625 1154.0
285.1492004394531 353.0
286.1762390136719 800.0
287.18609619140625 1365.0
288.1977233886719 746.0
289.1514587402344 237.0
290.1784973144531 351.0
291.1379089355469 482.0
292.1708679199219 419.0
293.1623840332031 661.0
294.1893005371094 20527.0
295.1456604003906 811.0
296.1639404296875 3220.0
297.1525573730469 3793.0
298.2154846191406 1337.0
299.17108154296875 761.0
300.1938781738281 2501.0
301.1623840332031 224.0
302.17877197265625 297.0
303.1651306152344 228.0
304.1775817871094 1949.0
305.1941833496094 307.0
306.1829833984375 531.0
307.166015625 235.0
308.19989013671875 1702.0
309.14666748046875 2535.0
310.1838684082031 2828.0
311.1658630371094 1169.0
312.20147705078125 5234.0
313.17425537109375 286.0
314.1709289550781 1228.0
315.1866149902344 888.0
316.19146728515625 927.0
318.1909484863281 176.0
319.15545654296875 97.0
320.16912841796875 186.0
321.17181396484375 238.0
322.1811218261719 11913.0
323.17181396484375 340.0
324.1968994140625 1344.0
326.2138977050781 67765.0
327.1676330566406 708.0
328.1913757324219 5296.0
329.1785583496094 1041.0
330.202880859375 327.0
331.2032775878906 116.0
332.2231140136719 805.0
334.1827697753906 280.0
336.2022399902344 4425.0
337.20654296875 213.0
338.2123107910156 1039.0
339.1860046386719 503.0
341.1919860839844 421.0
342.21148681640625 2790.0
344.22900390625 3193.0
345.19305419921875 121.0
346.2001953125 891.0
347.20623779296875 88.0
352.1923828125 1457.0
353.1226806640625 188.0
354.21002197265625 87097.0
355.2170104980469 327.0
356.2228088378906 1302.0
357.1875915527344 328.0
358.2386474609375 88677.0
359.1742248535156 129.0
360.2175598144531 7311.0
364.19708251953125 152.0
366.2111511230469 483.0
368.22540283203125 6772.0
369.2197570800781 101.0
370.22625732421875 1007.0
371.2152099609375 204.0
372.2217102050781 12090.0
374.2361145019531 327.0
375.2032165527344 151.0
376.25048828125 912.0
382.2053527832031 896.0
384.21630859375 2079.0
386.2352600097656 207394.0
387.245361328125 168.0
388.24847412109375 554.0
390.2585754394531 1482.0
396.2222900390625 520.0
398.2304992675781 405.0
400.2466125488281 1749.0
402.2255859375 1013.0
402.9942932128906 138.0
404.2461242675781 41507.0
414.23333740234375 12927.0
416.2494201660156 11794.0
418.2646484375 12601.0
428.2453308105469 2034.0
430.2660827636719 92.0
434.25750732421875 807.0
436.2689208984375 114.0
444.2545166015625 448.0
446.25927734375 62374.0
448.2745056152344 203.0
458.25341796875 625.0
476.2687072753906 832773.0
478.282958984375 788.0
506.73004150390625 10370.0
507.3177795410156 85.0
507.8805847167969 156.0
508.2949523925781 1040837.0
509.4726257324219 6130.0
509.61517333984375 7185.0
509.99542236328125 1789.0
510.1190185546875 581.0
510.2426452636719 178.0
510.4709167480469 309.0
510.5882263183594 300.0
510.7119140625 179.0
510.8324279785156 163.0
511.0639953613281 189.0
511.175048828125 182.0
511.3051452636719 285.0
511.43524169921875 109.0
511.54949951171875 159.0
511.6701354980469 151.0
511.7716979980469 128.0
511.9082336425781 181.0
512.1464233398438 178.0
512.3941650390625 148.0
512.53076171875 117.0
512.6896362304688 127.0
512.8453369140625 112.0
513.1504516601562 123.0
513.3157958984375 107.0
513.4684448242188 133.0
513.6973876953125 144.0
513.8118896484375 154.0
514.0409545898438 88.0
514.2286987304688 122.0
514.4324340820312 113.0
514.6838989257812 98.0
514.8399047851562 186.0
515.0341796875 118.0
515.2794189453125 109.0
515.49609375 92.0
515.626708984375 97.0
515.9996337890625 104.0
516.2164306640625 61.0
516.5895385742188 81.0
516.8351440429688 86.0
517.51171875 124.0
517.7352294921875 112.0
517.8406372070312 80.0
518.1951904296875 79.0
518.4635620117188 85.0
519.0420532226562 82.0
519.2626953125 83.0
520.8468627929688 95.0
521.2216796875 87.0
521.6318359375 94.0

Name: Deltaline
Precursor_mz: 530.2710803
Cas: 11/9/36
Adduct: [M+Na]+
Mz: 530.272438
Comment: Major
Smiles: CCN1C[C@]2(C)CC[C@H](OC)[C@@]34[C@H]1[C@]1(OCO[C@@]15C[C@H](OC)[C@H]1C[C@]3(O)[C@@H]5[C@H]1OC)[C@@H](OC(C)=O)[C@H]24
Formula: C27H41NO8
Mix: Alkaloids-pos-mix19
Rt: [2.455]
Rt_apex: 2.451871102
Rt_start: 2.414083333
Rt_end: 2.542916667
Ms1_intensity: 18844
N_scnas: 19
Ms1_scan_range: [648, 654, 668]
Reci_snr: 0.009102981
Ms2_scan_idx: 1109
Pmz_offset: 0.001242573
Entropy: 0.9999998807907104
Num Peaks: 8
262.1916198730469 92.0
342.2166748046875 93.0
354.2073669433594 93.0
358.249267578125 92.0
390.2668762207031 452.0
418.25604248046875 486.0
448.2745056152344 1988.0
530.273193359375 526.0

Name: Isorhynchophylline
Precursor_mz: 385.2121887
Cas: 1/4/59
Adduct: [M+H]+
Mz: 385.2121838
Comment: Major
Smiles: CC[C@H]1CN2CC[C@@]3(C(=O)Nc4ccccc43)[C@@H]2C[C@@H]1/C(=C\OC)C(=O)OC
Formula: C22H28N2O4
Mix: Alkaloids-pos-mix19
Rt: [2.761, 2.899]
Rt_apex: 2.762997239
Rt_start: 2.703733333
Rt_end: 2.86105
Ms1_intensity: 15875766
N_scnas: 24
Ms1_scan_range: [692, 702, 717]
Reci_snr: 2.29e-05
Ms2_scan_idx: 1335
Pmz_offset: 0.000785095
Entropy: 0.9884352684020996
Num Peaks: 210
41.03797912597656 578.0
42.033748626708984 2525.0
43.0166015625 276.0
44.048057556152344 576.0
45.034271240234375 400.0
47.0500373840332 488.0
55.05348205566406 6143.0
56.049224853515625 13185.0
58.065345764160156 363.0
59.05009460449219 522.0
65.03736877441406 329.0
67.0536880493164 971.0
68.02361297607422 1136.0
69.03314208984375 257.0
70.06538391113281 14444.0
75.0433349609375 3022.0
77.03922271728516 2390.0
78.03150177001953 217.0
79.0550765991211 2277.0
80.04890441894531 3925.0
81.0565185546875 756.0
82.06535339355469 4005.0
83.04845428466797 1027.0
84.07986450195312 2552.0
85.02574157714844 1096.0
89.03553009033203 1164.0
90.04342651367188 714.0
91.05431365966797 9947.0
92.04661560058594 963.0
93.06864929199219 4779.0
94.06502532958984 6325.0
95.0831298828125 964.0
96.08057403564453 954.0
97.06524658203125 789.0
98.09663391113281 810.0
99.04127502441406 430.0
101.04003143310547 306.0
102.0483169555664 166.0
103.05306243896484 2220.0
104.04984283447266 1710.0
105.06724548339844 3029.0
106.06502532958984 2871.0
107.08349609375 4136.0
108.08057403564453 65839.0
109.05001831054688 1974.0
110.09593963623047 51421.0
111.04479217529297 17282.0
112.11061096191406 814.0
115.05393981933594 23412.0
116.04806518554688 2832.0
117.05708312988281 18574.0
118.06437683105469 16890.0
119.08211517333984 677.0
120.08114624023438 785.0
121.06427764892578 1362.0
122.09483337402344 3302.0
123.08148956298828 13348.0
124.11276245117188 6814.0
125.0588607788086 1860.0
126.05267333984375 395.0
127.0551528930664 846.0
128.0489044189453 2797.0
129.0529022216797 6596.0
130.06402587890625 47664.0
131.07106018066406 1100.0
132.07069396972656 51435.0
133.0644073486328 506.0
134.09434509277344 2692.0
135.08094787597656 726.0
136.11045837402344 1146.0
137.0469207763672 935.0
138.05419921875 5214.0
139.07510375976562 2250.0
140.0499267578125 3335.0
141.05816650390625 258.0
142.06500244140625 72762.0
143.07373046875 1411.0
144.0809783935547 29741.0
145.0495147705078 1464.0
146.06028747558594 2344.0
147.0813751220703 575.0
148.11114501953125 1214.0
149.09481811523438 500.0
150.05767822265625 626.0
151.07192993164062 1918.0
152.06881713867188 1365.0
153.09156799316406 2471.0
154.0654754638672 6641.0
155.0721893310547 260.0
156.07516479492188 779.0
157.0743408203125 495.0
158.0625762939453 58564.0
159.08755493164062 6671.0
160.0767822265625 568560.0
161.0726318359375 314.0
162.09121704101562 5578.0
163.10047912597656 322.0
164.1074676513672 924.0
165.09231567382812 269.0
166.08554077148438 1995.0
167.10531616210938 1745.0
168.0772705078125 1873.0
169.07577514648438 2557.0
170.09368896484375 2619.0
171.09999084472656 6233.0
172.0779571533203 20323.0
173.07901000976562 320.0
174.0922393798828 1368.0
175.1009979248047 1128.0
176.10707092285156 1280.0
177.09361267089844 424.0
178.0679473876953 363.0
179.09564208984375 506.0
180.10369873046875 986.0
181.0919189453125 517.0
182.09420776367188 1052.0
183.0916748046875 1174.0
184.1147003173828 3098.0
185.07376098632812 3465.0
186.0889129638672 6207.0
187.08763122558594 207473.0
188.10635375976562 185.0
189.10855102539062 196.0
190.126953125 231.0
192.08441162109375 642.0
193.1029815673828 489.0
194.11642456054688 7149.0
195.0913543701172 782.0
196.1099853515625 2244.0
197.0741424560547 1816.0
198.0900421142578 1603.0
199.08477783203125 4296.0
200.10781860351562 1574.0
201.1016387939453 4696.0
206.09356689453125 481.0
207.09405517578125 244.0
208.1273193359375 805.0
209.10836791992188 403.0
210.09170532226562 2684.0
211.0855255126953 3101.0
212.1021270751953 6278.0
213.10476684570312 31353.0
214.12005615234375 178.0
215.11715698242188 27131.0
219.09136962890625 243.0
220.11038208007812 166.0
221.1088104248047 246.0
222.11158752441406 412.0
223.12081909179688 861.0
224.1071319580078 605.0
225.10194396972656 1313.0
226.1432647705078 16038.0
227.12142944335938 257.0
236.08668518066406 196.0
237.10337829589844 4818.0
238.11143493652344 406.0
239.11727905273438 4036.0
240.16004943847656 1669.0
241.13534545898438 810014.0
242.10824584960938 383.0
249.1018829345703 202.0
250.10845947265625 1384.0
251.1193084716797 4212.0
252.1388702392578 308.0
253.1314697265625 452.0
254.0924530029297 153.0
263.11920166015625 773.0
264.1194763183594 316.0
265.1353454589844 32064.0
267.15234375 175444.0
269.1654357910156 97258.0
275.1220703125 290.0
277.13922119140625 501.0
278.14471435546875 414.0
279.1496887207031 766.0
281.12506103515625 3042.0
282.0976867675781 493.0
283.14990234375 184.0
289.1367492675781 255.0
291.1518859863281 1035.0
293.1595764160156 2914.0
295.1428527832031 1254.0
296.115234375 195.0
297.1255187988281 5226.0
301.12786865234375 183.0
303.1500549316406 4305.0
305.1545104980469 297.0
307.15081787109375 183.0
309.12896728515625 724.0
311.14068603515625 388.0
319.1424865722656 323.0
320.15362548828125 777.0
321.16131591796875 66330.0
323.1739196777344 402.0
325.17254638671875 554.0
327.1722412109375 190.0
335.1784362792969 3363.0
351.1708068847656 542.0
352.09710693359375 1385.0
353.1881408691406 716001.0
354.15936279296875 343.0
383.19866943359375 3316.0
384.0260009765625 4987.0
385.21771240234375 892346.0
386.4416198730469 1187.0
386.69268798828125 1147.0
386.8031005859375 335.0
387.1095275878906 245.0
387.2144470214844 167.0
387.7420654296875 171.0

Name: Isorhynchophylline
Precursor_mz: 407.1920964
Cas: 1/4/59
Adduct: [M+Na]+
Mz: 407.1941281
Comment: Major
Smiles: CC[C@H]1CN2CC[C@@]3(C(=O)Nc4ccccc43)[C@@H]2C[C@@H]1/C(=C\OC)C(=O)OC
Formula: C22H28N2O4
Mix: Alkaloids-pos-mix19
Rt: [2.761, 2.899]
Rt_apex: 2.763437927
Rt_start: 2.7169
Rt_end: 2.847216667
Ms1_intensity: 25080
N_scnas: 20
Ms1_scan_range: [694, 702, 715]
Reci_snr: 0.086310754
Ms2_scan_idx: 1339
Pmz_offset: 0.003501982
Entropy: 1.0
Num Peaks: 5
230.12582397460938 31.0
240.15982055664062 41.0
292.0934143066406 41.0
320.1106262207031 31.0
407.1962585449219 1521.0

Name: Epiberberine
Precursor_mz: 336.1242104
Cas: 9/2/73
Adduct: [M]+
Mz: 336.1230345
Comment: Major
Smiles: COc1cc2c(cc1OC)-c1cc3ccc4c(c3c[n+]1CC2)OCO4
Formula: C20H18NO4+
Mix: Alkaloids-pos-mix19
Rt: [2.942, 2.682]
Rt_apex: 2.941019049
Rt_start: 2.881716667
Rt_end: 4.1018
Ms1_intensity: 5165202
N_scnas: 190
Ms1_scan_range: [720, 729, 911]
Reci_snr: 0.003206656
Ms2_scan_idx: 1476
Pmz_offset: 0.002736214
Entropy: 0.9951164126396179
Num Peaks: 80
139.05532836914062 192.0
150.05088806152344 192.0
151.05303955078125 389.0
163.05577087402344 390.0
164.0626220703125 473.0
165.0689697265625 535.0
166.06573486328125 197.0
176.0587615966797 352.0
177.0638427734375 447.0
178.06617736816406 497.0
189.06813049316406 506.0
190.0690155029297 1094.0
191.07447814941406 3626.0
192.07675170898438 1284.0
202.0621337890625 632.0
203.0727996826172 463.0
204.08596801757812 3327.0
205.05545043945312 1035.0
206.0997314453125 611.0
207.06387329101562 732.0
215.07200622558594 283.0
216.07957458496094 1181.0
217.08950805664062 2180.0
218.093505859375 573.0
219.0686492919922 2758.0
220.07720947265625 6656.0
221.08807373046875 671.0
222.09080505371094 622.0
225.08734130859375 489.0
231.07237243652344 679.0
232.07821655273438 2621.0
233.079833984375 4043.0
234.09432983398438 8335.0
235.06155395507812 2352.0
236.10623168945312 1343.0
244.07542419433594 327.0
245.0872039794922 1332.0
246.09445190429688 3743.0
247.06626892089844 1621.0
248.07095336914062 10892.0
249.0843048095703 9495.0
250.08863830566406 4018.0
258.09906005859375 186.0
259.0603942871094 296.0
260.071044921875 5273.0
261.0813903808594 3161.0
262.0868835449219 21414.0
263.0738220214844 21347.0
264.1036682128906 9338.0
265.1195068359375 204.0
273.0799560546875 182.0
274.0896911621094 9809.0
275.09893798828125 82030.0
276.1007385253906 5878.0
277.0786437988281 23549.0
278.08636474609375 544730.0
288.06646728515625 1716.0
289.0772705078125 5956.0
290.0850524902344 18028.0
291.0921936035156 35477.0
292.10107421875 768313.0
293.1116943359375 958.0
302.0907287597656 817.0
303.08673095703125 1555.0
304.0990295410156 295227.0
305.0738220214844 3134.0
306.0820617675781 259639.0
308.13067626953125 187.0
316.0739440917969 233.0
317.1051940917969 423.0
318.08056640625 233195.0
319.11761474609375 2607.0
320.0935363769531 807613.0
321.1036682128906 424114.0
322.1053161621094 206.0
335.09130859375 2198.0
336.12994384765625 517361.0
337.2758483886719 734.0
337.5078430175781 377.0
337.6083984375 293.0

Name: Phellodendrine
Precursor_mz: 342.1709028
Cas: 6873-13-8
Adduct: [M]+
Mz: 342.1699847
Comment: Major
Smiles: COc1cc2c(cc1O)C[C@H]1c3cc(O)c(OC)cc3CC[N@@+]1(C)C2
Formula: C20H24NO4+
Mix: Alkaloids-pos-mix19
Rt: [1.951]
Rt_apex: 1.95294279
Rt_start: 1.880283333
Rt_end: 2.46325
Ms1_intensity: 2263104
N_scnas: 91
Ms1_scan_range: [564, 579, 656]
Reci_snr: 0.000290003
Ms2_scan_idx: 743
Pmz_offset: 0.002343118
Entropy: 0.8993434906005859
Num Peaks: 65
42.03461837768555 1086.0
44.048946380615234 214.0
77.03668975830078 181.0
79.05500030517578 184.0
89.03544616699219 91.0
91.0569076538086 457.0
94.06494140625 290.0
103.05438995361328 377.0
104.0526123046875 195.0
105.05851745605469 341.0
106.06492614746094 366.0
107.04854583740234 602.0
108.05274963378906 248.0
115.05081939697266 124.0
116.04644012451172 110.0
117.05545806884766 252.0
118.0657958984375 98.0
119.04984283447266 526.0
120.0810317993164 1505.0
121.08732604980469 677.0
130.0623016357422 368.0
131.0725555419922 525.0
132.0802459716797 1065.0
133.05133056640625 2283.0
134.0584716796875 782.0
136.0497589111328 673.0
137.0583038330078 335.0
143.05345153808594 177.0
146.06015014648438 136.0
147.06932067871094 774.0
148.0768585205078 41606.0
149.0843963623047 46204.0
150.09019470214844 346.0
151.07522583007812 3096.0
160.07484436035156 818.0
161.08316040039062 220.0
162.05532836914062 264.0
163.07164001464844 324.0
164.10731506347656 736.0
165.08494567871094 157.0
175.05812072753906 512.0
176.07151794433594 5806.0
177.08038330078125 511863.0
178.08274841308594 473.0
189.0794219970703 145.0
190.08807373046875 6445.0
191.0935821533203 608.0
192.1036834716797 1069518.0
193.1457061767578 589.0
194.0947265625 91.0
204.10369873046875 206.0
207.0817413330078 135.0
219.08285522460938 243.0
237.1031494140625 117.0
247.07029724121094 139.0
251.10572814941406 230.0
279.10955810546875 243.0
298.14208984375 119.0
299.1315612792969 114.0
310.138671875 88.0
311.1304931640625 183.0
313.14373779296875 87.0
327.14910888671875 283.0
341.1289978027344 285.0
342.1743469238281 67049.0

Name: Corynoxine
Precursor_mz: 385.211766
Cas: 6877-32-3
Adduct: [M+H]+
Mz: 385.2121838
Comment: Major
Smiles: CC[C@@H]1CN2CC[C@@]3(C(=O)Nc4ccccc43)[C@@H]2C[C@@H]1/C(=C\OC)C(=O)OC
Formula: C22H28N2O4
Mix: Alkaloids-pos-mix48
Rt: [2.805, 2.98]
Rt_apex: 2.806557432
Rt_start: 2.73085
Rt_end: 2.9168
Ms1_intensity: 5300436
N_scnas: 34
Ms1_scan_range: [807, 825, 842]
Reci_snr: 2.35e-05
Ms2_scan_idx: 1102
Pmz_offset: 0.000346552
Entropy: 0.9795741438865662
Num Peaks: 168
41.03961181640625 397.0
42.034488677978516 1200.0
43.01826858520508 197.0
45.03221130371094 370.0
55.05329132080078 1870.0
56.04903030395508 5107.0
58.064083099365234 259.0
67.05462646484375 305.0
68.04886627197266 291.0
70.06517028808594 6528.0
75.04432678222656 2273.0
77.03900146484375 1195.0
78.0312728881836 225.0
79.05609893798828 1174.0
80.04867553710938 1701.0
81.0550308227539 799.0
82.06766510009766 1841.0
83.04949951171875 367.0
84.08091735839844 988.0
85.02680206298828 1068.0
89.03926849365234 1221.0
90.04452514648438 490.0
91.05274200439453 4577.0
92.04637145996094 446.0
93.06976318359375 3834.0
94.06478881835938 5652.0
95.08699035644531 1086.0
96.08032989501953 813.0
97.0594711303711 194.0
98.09500122070312 736.0
103.0556640625 852.0
104.04816436767578 1001.0
105.0713119506836 1429.0
106.06188201904297 922.0
107.08614349365234 1528.0
108.08177185058594 18319.0
109.05123138427734 718.0
110.09715270996094 49662.0
111.04305267333984 3290.0
112.1088638305664 208.0
115.05368041992188 14000.0
116.05081939697266 1348.0
117.05986022949219 11190.0
118.0641098022461 10416.0
119.04969024658203 598.0
120.04397583007812 511.0
121.06246948242188 572.0
122.09766387939453 921.0
123.08121490478516 10291.0
124.11092376708984 3038.0
125.05858612060547 1339.0
126.05397033691406 330.0
127.05329895019531 1203.0
128.0486297607422 2027.0
129.05422973632812 3161.0
130.0653533935547 21159.0
131.07400512695312 864.0
132.0768585205078 24366.0
133.06898498535156 185.0
134.09893798828125 862.0
135.07577514648438 465.0
136.08070373535156 511.0
137.04335021972656 393.0
138.05227661132812 2438.0
139.07647705078125 2568.0
140.04965209960938 2576.0
142.06471252441406 39273.0
143.0751190185547 1065.0
144.0806884765625 19128.0
145.0576629638672 692.0
146.0616912841797 1610.0
148.0749969482422 604.0
149.09280395507812 251.0
150.08831787109375 275.0
151.0750732421875 857.0
152.07199096679688 570.0
153.0912628173828 1444.0
154.06692504882812 2953.0
156.08187866210938 455.0
157.0916290283203 211.0
158.06051635742188 20101.0
159.08901977539062 5797.0
160.07647705078125 269852.0
162.0926971435547 2591.0
163.10195922851562 254.0
164.10536193847656 460.0
165.0793914794922 202.0
166.0834197998047 1053.0
167.10682678222656 1212.0
168.10243225097656 3873.0
169.07728576660156 2298.0
170.098876953125 1973.0
171.1051788330078 1995.0
172.07763671875 9856.0
173.0768585205078 200.0
174.08636474609375 625.0
176.10675048828125 854.0
177.0914306640625 454.0
178.078857421875 269.0
180.10150146484375 588.0
181.08782958984375 180.0
182.09767150878906 361.0
183.09515380859375 965.0
184.1124725341797 3282.0
185.0696258544922 2383.0
186.0809326171875 4898.0
187.08731079101562 191822.0
188.11181640625 268.0
192.07630920410156 338.0
193.07730102539062 227.0
194.11805725097656 3911.0
195.0890655517578 521.0
196.10769653320312 1936.0
197.07183837890625 1105.0
198.08773803710938 848.0
199.08444213867188 3834.0
200.10549926757812 607.0
201.101318359375 1330.0
208.1350860595703 595.0
209.10598754882812 291.0
210.09136962890625 962.0
211.08721923828125 1869.0
212.0977020263672 4269.0
213.10238647460938 8486.0
215.11888122558594 7481.0
221.11264038085938 211.0
222.09033203125 284.0
223.12257385253906 543.0
224.11940002441406 357.0
225.10159301757812 1255.0
226.1471405029297 11851.0
237.1051788330078 1589.0
238.1522216796875 220.0
239.1190948486328 2668.0
240.161865234375 657.0
241.13717651367188 542843.0
242.13409423828125 269.0
243.1527862548828 260.0
250.11920166015625 401.0
251.1211700439453 1117.0
253.13333129882812 201.0
263.1279296875 188.0
265.1349792480469 11949.0
267.1519470214844 48681.0
269.169677734375 30364.0
279.1516418457031 327.0
281.1270446777344 1226.0
282.0996398925781 293.0
291.1562805175781 289.0
293.16400146484375 1019.0
295.1617431640625 430.0
297.1275634765625 2542.0
303.1472473144531 1083.0
309.1631164550781 337.0
321.1634216308594 11618.0
323.1785583496094 259.0
325.1847839355469 270.0
327.1617126464844 205.0
329.1573181152344 542.0
335.18060302734375 862.0
351.1730041503906 324.0
353.19036865234375 174486.0
383.20098876953125 1428.0
384.039306640625 2260.0
385.21728515625 683624.0
386.44671630859375 745.0
386.68951416015625 348.0
386.8081970214844 209.0

Name: Corynoxine
Precursor_mz: 385.2130998
Cas: 6877-32-3
Adduct: [M+H]+
Mz: 385.2121838
Comment: isomer
Smiles: CC[C@@H]1CN2CC[C@@]3(C(=O)Nc4ccccc43)[C@@H]2C[C@@H]1/C(=C\OC)C(=O)OC
Formula: C22H28N2O4
Mix: Alkaloids-pos-mix48
Rt: [2.805, 2.98]
Rt_apex: 2.982063684
Rt_start: 2.9168
Rt_end: 3.809733333
Ms1_intensity: 4526338
N_scnas: 162
Ms1_scan_range: [842, 852, 1005]
Reci_snr: 5.24e-05
Ms2_scan_idx: 1229
Pmz_offset: 0.001680385
Entropy: 0.9834883213043213
Num Peaks: 154
41.039676666259766 90.0
42.032737731933594 2036.0
44.04981994628906 250.0
55.05337905883789 184.0
56.050174713134766 9201.0
58.063106536865234 292.0
67.0535888671875 96.0
68.04782104492188 394.0
70.0641098022461 12189.0
75.04444885253906 1208.0
77.03666687011719 1127.0
78.03140258789062 228.0
79.05497741699219 951.0
80.05006408691406 1184.0
81.06779479980469 552.0
82.0627212524414 662.0
84.07977294921875 271.0
85.02693939208984 1189.0
89.0367660522461 1834.0
90.0459976196289 729.0
91.05288696289062 3124.0
92.04786682128906 137.0
93.06856536865234 3176.0
94.06494140625 737.0
95.08304595947266 479.0
96.07498168945312 185.0
97.06239318847656 118.0
98.09516143798828 1523.0
103.05583190917969 335.0
104.0468978881836 1517.0
105.0671615600586 1462.0
106.06639099121094 340.0
107.08341979980469 406.0
108.08049011230469 14944.0
109.08805084228516 378.0
110.09586334228516 111064.0
111.0432357788086 805.0
115.05386352539062 19901.0
116.04798889160156 2042.0
117.05853271484375 15501.0
118.0643081665039 13616.0
119.08663177490234 250.0
120.04417419433594 185.0
121.064208984375 279.0
122.09476470947266 514.0
123.0814208984375 1321.0
124.11112976074219 6160.0
125.06036376953125 686.0
126.0541763305664 619.0
127.05034637451172 284.0
128.04884338378906 227.0
129.054443359375 7749.0
130.06556701660156 3054.0
131.07421875 655.0
132.0706329345703 32023.0
133.0675811767578 283.0
134.0975341796875 497.0
135.07598876953125 164.0
136.07765197753906 617.0
137.09616088867188 298.0
138.05580139160156 3489.0
139.0767059326172 5541.0
140.0498809814453 3236.0
141.0564422607422 109.0
142.06661987304688 56472.0
143.07032775878906 493.0
144.08261108398438 15416.0
145.05284118652344 752.0
146.0568389892578 640.0
148.11109924316406 249.0
150.0885772705078 143.0
151.08050537109375 287.0
152.07049560546875 292.0
153.09152221679688 3122.0
154.0654296875 1069.0
155.0721435546875 87.0
158.06077575683594 5442.0
159.0715789794922 535.0
160.0767364501953 400752.0
162.0929718017578 2242.0
163.10223388671875 93.0
164.07147216796875 411.0
165.0886688232422 313.0
166.089111328125 544.0
167.1071014404297 154.0
168.1027069091797 11231.0
169.07391357421875 262.0
170.09365844726562 780.0
171.10179138183594 4833.0
172.0779266357422 3346.0
174.0922088623047 473.0
175.0879669189453 119.0
176.10145568847656 211.0
178.08851623535156 196.0
180.1036834716797 194.0
183.10304260253906 174.0
184.07659912109375 347.0
185.07183837890625 244.0
186.09080505371094 725.0
187.08953857421875 8837.0
189.10081481933594 288.0
192.10580444335938 123.0
194.12033081054688 5789.0
195.1285858154297 84.0
196.1040802001953 367.0
197.10960388183594 342.0
198.09201049804688 525.0
199.08477783203125 281.0
201.10562133789062 247.0
206.1217803955078 81.0
208.13946533203125 311.0
210.0917205810547 150.0
211.08145141601562 164.0
212.10621643066406 234.0
213.1047821044922 5632.0
215.11923217773438 17842.0
223.12713623046875 142.0
224.13446044921875 219.0
225.133544921875 119.0
226.14540100097656 39131.0
237.10557556152344 397.0
238.1461181640625 248.0
239.12600708007812 275.0
240.16226196289062 1289.0
241.13539123535156 69245.0
243.15098571777344 310.0
250.1085205078125 408.0
251.11489868164062 1173.0
252.15896606445312 153.0
263.12152099609375 101.0
265.1331481933594 8836.0
267.15240478515625 20634.0
269.1678161621094 63907.0
279.1544494628906 239.0
281.1345520019531 1854.0
291.16156005859375 114.0
293.1741027832031 495.0
295.1501770019531 290.0
297.1280517578125 1837.0
303.1428527832031 160.0
309.1710205078125 417.0
321.1639709472656 3991.0
325.14483642578125 87.0
327.1723937988281 530.0
329.15277099609375 753.0
335.1734619140625 233.0
353.1909484863281 133962.0
367.2105407714844 317.0
383.20159912109375 1772.0
384.0344543457031 1266.0
385.21514892578125 532036.0
386.4501037597656 395.0
386.6956787109375 183.0
386.8033142089844 100.0

Name: Corynoxine
Precursor_mz: 407.1935138
Cas: 6877-32-3
Adduct: [M+Na]+
Mz: 407.1941281
Comment: Major
Smiles: CC[C@@H]1CN2CC[C@@]3(C(=O)Nc4ccccc43)[C@@H]2C[C@@H]1/C(=C\OC)C(=O)OC
Formula: C22H28N2O4
Mix: Alkaloids-pos-mix48
Rt: [2.805, 2.98]
Rt_apex: 2.806815437
Rt_start: 2.740316667
Rt_end: 2.9098
Ms1_intensity: 19511
N_scnas: 31
Ms1_scan_range: [809, 825, 841]
Reci_snr: 0.006413877
Ms2_scan_idx: 1112
Pmz_offset: 0.00265726
Entropy: 1.0
Num Peaks: 4
248.12127685546875 31.0
351.1335754394531 46.0
375.1778259277344 31.0
407.19903564453125 903.0

Name: Laetanine
Precursor_mz: 314.1386309
Cas: 72361-67-2
Adduct: [M+H]+
Mz: 314.1386845
Comment: Major
Smiles: COc1cc2c(cc1O)-c1c(OC)c(O)cc3c1C(C2)NCC3
Formula: C18H19NO4
Mix: Alkaloids-pos-mix48
Rt: [1.966]
Rt_apex: 1.965364034
Rt_start: 1.929633333
Rt_end: 2.1515
Ms1_intensity: 861694
N_scnas: 47
Ms1_scan_range: [633, 640, 681]
Reci_snr: 0.000244739
Ms2_scan_idx: 789
Pmz_offset: 0.001850838
Entropy: 0.9989006519317627
Num Peaks: 63
139.05348205566406 225.0
141.06639099121094 583.0
151.05628967285156 717.0
152.05833435058594 392.0
153.06541442871094 715.0
154.0723419189453 208.0
155.08082580566406 974.0
164.0624237060547 165.0
165.0687713623047 8492.0
166.07640075683594 3518.0
167.08163452148438 225.0
168.05899047851562 614.0
169.06289672851562 218.0
176.06414794921875 3705.0
177.06924438476562 33835.0
178.07720947265625 539.0
179.08428955078125 630.0
181.06350708007812 352.0
182.0732879638672 310.0
183.08018493652344 2861.0
187.07411193847656 185.0
189.06600952148438 595.0
190.0726776123047 504.0
191.08203125 1228.0
193.06390380859375 3296.0
194.0713653564453 39265.0
195.0795135498047 882.0
197.06224060058594 284.0
201.05181884765625 485.0
204.05770874023438 529.0
205.0632781982422 55222.0
206.0713348388672 1757.0
207.07781982421875 788.0
208.0867462158203 557.0
209.09205627441406 949.0
210.06723022460938 276.0
211.07322692871094 7386.0
219.08299255371094 482.0
221.0544891357422 3106.0
222.06759643554688 30412.0
223.07254028320312 3751.0
225.0850372314453 471.0
226.09466552734375 1211.0
227.06637573242188 385.0
233.05821228027344 6467.0
234.06837463378906 1483.0
235.0742645263672 523.0
236.0801544189453 408.0
237.09251403808594 64919.0
239.06948852539062 11622.0
240.0751953125 174.0
247.0771026611328 290.0
249.0531005859375 317.0
250.0618133544922 3474.0
251.068115234375 4058.0
253.08453369140625 627.0
254.09242248535156 4356.0
265.08734130859375 39619.0
266.0913391113281 3320.0
267.0651550292969 7109.0
282.0953063964844 6078.0
297.1109924316406 12288.0
314.1381530761719 298.0

Name: Chloroquine phosphate
Precursor_mz: 320.1885015
Cas: 50-63-5
Adduct: [M+H]+
Mz: 320.188802
Comment: Major
Smiles: CCN(CC)CCCC(C)Nc1ccnc2cc(Cl)ccc12
Formula: C18H26ClN3
Mix: Alkaloids-pos-mix48
Rt: [2.805, 2.98]
Rt_apex: 9.500206092
Rt_start: 9.459516667
Rt_end: 9.698666667
Ms1_intensity: 2095
N_scnas: 31
Ms1_scan_range: [2312, 2317, 2344]
Reci_snr: 0.000217521
Ms2_scan_idx: 3481
Pmz_offset: 0.001783582
Entropy: 1.0
Num Peaks: 5
86.0964126586914 246.0
142.1583709716797 201.0
179.0352020263672 336.0
191.0313262939453 154.0
247.0988006591797 609.0

Name: Dihydrochelerythrine
Precursor_mz: 350.1391304
Cas: 6880-91-7
Adduct: [M+H]+
Mz: 350.1386845
Comment: Major
Smiles: COc1ccc2c(c1OC)CN(C)c1c-2ccc2cc3c(cc12)OCO3
Formula: C21H19NO4
Mix: Alkaloids-pos-mix20
Rt: [5.327]
Rt_apex: 5.328848089
Rt_start: 5.2666
Rt_end: 5.713466667
Ms1_intensity: 764834
N_scnas: 94
Ms1_scan_range: [1079, 1091, 1174]
Reci_snr: 0.000434861
Ms2_scan_idx: 2969
Pmz_offset: 0.002377169
Entropy: 0.9883123636245728
Num Peaks: 53
189.07369995117188 496.0
190.0668487548828 328.0
201.06768798828125 255.0
202.0818328857422 231.0
203.0765380859375 396.0
204.07569885253906 367.0
216.07518005371094 375.0
217.0706329345703 223.0
218.064208984375 552.0
219.07876586914062 2347.0
232.0736541748047 582.0
233.09881591796875 520.0
234.09188842773438 680.0
244.07949829101562 226.0
246.09634399414062 867.0
247.07919311523438 1237.0
248.0662078857422 754.0
249.08177185058594 344.0
259.07135009765625 657.0
260.0865478515625 1414.0
261.0878601074219 3284.0
262.0865478515625 829.0
264.11016845703125 224.0
272.0671081542969 644.0
273.0796203613281 3514.0
274.0916442871094 3079.0
275.09161376953125 4370.0
276.070068359375 7469.0
277.0736083984375 4364.0
287.0951232910156 624.0
289.0816650390625 3908.0
290.08465576171875 32792.0
291.08941650390625 1568.0
292.0982666015625 1938.0
301.0789489746094 254.0
302.08544921875 6630.0
303.0960998535156 5159.0
304.0986328125 16020.0
305.07830810546875 11274.0
306.1086730957031 495.0
315.0887756347656 193.0
316.0660400390625 2690.0
317.1022644042969 554.0
318.09014892578125 60212.0
319.09210205078125 33241.0
320.10064697265625 9402.0
321.1183166503906 202.0
332.0970764160156 660.0
334.1102294921875 188217.0
335.1191101074219 49225.0
348.13177490234375 839.0
349.13275146484375 1802.0
350.14300537109375 13996.0

Name: Hypaconitine
Precursor_mz: 616.315161
Cas: 6900-87-4
Adduct: [M+H]+
Mz: 616.3116231
Comment: Major
Smiles: COC[C@@]12CC[C@H](OC)[C@@]34[C@@H]5C[C@]6(O)[C@@H](OC)[C@H](O)[C@](OC(C)=O)([C@@H]([C@H](OC)[C@H]13)[C@H]4N(C)C2)[C@H]5[C@H]6OC(=O)c1ccccc1
Formula: C33H45NO10
Mix: Alkaloids-pos-mix20
Rt: [3.567]
Rt_apex: 3.567420596
Rt_start: 3.517883333
Rt_end: 3.753033333
Ms1_intensity: 19827622
N_scnas: 34
Ms1_scan_range: [795, 802, 830]
Reci_snr: 5.47e-05
Ms2_scan_idx: 1995
Pmz_offset: 0.004103584
Entropy: 0.9331818222999573
Num Peaks: 344
42.03468704223633 596.0
44.04994583129883 4039.0
45.032413482666016 612.0
51.023353576660156 222.0
58.065372467041016 1049.0
70.06070709228516 234.0
71.04850769042969 435.0
74.0582504272461 501.0
75.04335021972656 676.0
77.03801727294922 5974.0
79.05634307861328 374.0
80.04766845703125 321.0
82.06791687011719 248.0
84.08116912841797 777.0
85.0283432006836 401.0
86.06022644042969 172.0
88.0767822265625 4492.0
91.05433654785156 1482.0
93.07408142089844 232.0
94.06504821777344 3173.0
95.04756927490234 198.0
96.08196258544922 518.0
97.06388092041016 232.0
100.07466888427734 696.0
103.05165100097656 178.0
105.0341796875 102464.0
107.04720306396484 469.0
108.08058166503906 1845.0
109.06468963623047 762.0
110.1003646850586 676.0
112.07495880126953 351.0
114.09258270263672 1152.0
115.05094146728516 730.0
116.06318664550781 217.0
117.0677261352539 1268.0
118.059814453125 191.0
119.0468978881836 304.0
120.0811538696289 562.0
121.062744140625 593.0
122.09949493408203 256.0
123.08149719238281 449.0
124.07368469238281 335.0
126.09049224853516 645.0
128.06478881835938 832.0
129.06886291503906 1259.0
131.08712768554688 2345.0
132.0819854736328 419.0
133.1000213623047 317.0
134.09109497070312 682.0
135.04669189453125 7388.0
136.0711669921875 252.0
137.06170654296875 475.0
138.09213256835938 1137.0
140.1063995361328 4293.0
141.06983947753906 1200.0
142.0767059326172 210.0
143.087158203125 1312.0
144.0809783935547 381.0
145.06979370117188 296.0
146.09420776367188 804.0
147.042236328125 3589.0
148.07699584960938 523.0
149.09481811523438 756.0
150.09205627441406 206.0
151.07191467285156 188.0
152.11207580566406 246.0
153.06724548339844 730.0
154.1212158203125 355.0
155.08267211914062 967.0
156.0944366455078 189.0
157.1007080078125 383.0
158.0925750732422 760.0
159.08399963378906 371.0
160.11227416992188 659.0
161.08865356445312 740.0
162.09298706054688 448.0
163.11839294433594 215.0
164.10745239257812 846.0
165.0670623779297 601.0
166.07286071777344 272.0
167.08535766601562 1457.0
169.09765625 418.0
170.0973358154297 490.0
171.07611083984375 683.0
172.111083984375 1331.0
173.08824157714844 611.0
174.05519104003906 652.0
175.07498168945312 341.0
176.06980895996094 793.0
177.0506591796875 878.0
178.08103942871094 630.0
179.0824737548828 987.0
180.08860778808594 176.0
181.10134887695312 808.0
182.09986877441406 275.0
183.08786010742188 437.0
184.11277770996094 741.0
185.09664916992188 456.0
186.12525939941406 1043.0
187.10296630859375 288.0
188.06784057617188 303.0
189.08343505859375 1286.0
190.08822631835938 1980.0
191.091796875 641.0
192.09800720214844 403.0
193.09906005859375 1071.0
195.11680603027344 627.0
196.11585998535156 398.0
197.08790588378906 477.0
198.1255645751953 613.0
199.07485961914062 453.0
200.1117706298828 247.0
201.09564208984375 486.0
202.07994079589844 500.0
203.08863830566406 693.0
204.14195251464844 584.0
205.10353088378906 1225.0
206.15399169921875 2176.0
207.11624145507812 1458.0
208.10906982421875 304.0
209.10427856445312 595.0
210.1343994140625 363.0
211.10792541503906 556.0
212.10821533203125 268.0
213.08834838867188 324.0
214.0912628173828 370.0
215.10888671875 367.0
216.1000518798828 302.0
217.10382080078125 1287.0
218.1202850341797 221.0
219.1079559326172 1045.0
220.0957794189453 659.0
221.0983428955078 1152.0
222.1199188232422 371.0
223.114501953125 864.0
224.10499572753906 651.0
225.09979248046875 321.0
226.11790466308594 264.0
227.10446166992188 487.0
228.097412109375 236.0
229.1116485595703 577.0
230.15367126464844 860.0
231.15966796875 541.0
232.09300231933594 266.0
233.0946502685547 725.0
234.10704040527344 464.0
235.11300659179688 3029.0
236.1664276123047 570.0
237.12062072753906 749.0
238.13087463378906 362.0
239.10421752929688 437.0
240.14260864257812 191.0
241.11569213867188 296.0
245.10018920898438 833.0
246.1096649169922 274.0
247.1190185546875 1811.0
248.08180236816406 459.0
249.1195526123047 1150.0
250.1239471435547 414.0
251.10813903808594 702.0
252.13880920410156 449.0
253.12918090820312 684.0
254.14385986328125 161.0
255.13815307617188 215.0
256.1276550292969 361.0
257.10107421875 484.0
259.1121520996094 215.0
260.1409912109375 315.0
261.1197204589844 336.0
262.18438720703125 487.0
263.10546875 10320.0
264.1445007324219 673.0
265.12158203125 1636.0
266.1508483886719 481.0
267.13623046875 1100.0
268.1670837402344 392.0
269.1239318847656 323.0
270.1632385253906 245.0
275.1080322265625 2164.0
276.1401672363281 614.0
277.1251525878906 1060.0
278.1540222167969 2327.0
279.1402282714844 1146.0
280.1705017089844 524.0
281.15087890625 442.0
282.1541748046875 937.0
283.1309509277344 212.0
284.16143798828125 352.0
285.1582336425781 202.0
288.13531494140625 331.0
289.1104431152344 223.0
291.12786865234375 233.0
292.1463928222656 447.0
293.1474914550781 1652.0
294.1502990722656 1133.0
295.1355285644531 4815.0
296.1683044433594 792.0
297.15447998046875 527.0
298.1762390136719 443.0
299.08807373046875 202.0
301.14971923828125 324.0
302.18072509765625 218.0
306.1481018066406 3420.0
307.135986328125 982.0
308.1648864746094 1452.0
309.14862060546875 408.0
310.17840576171875 10384.0
311.1579284667969 391.0
312.16131591796875 286.0
313.19610595703125 335.0
314.21270751953125 2440.0
320.1686096191406 346.0
321.15618896484375 247.0
323.1485900878906 244.0
324.1609802246094 567.0
325.149658203125 293.0
326.1778869628906 621.0
327.1594543457031 465.0
328.18829345703125 464.0
332.1790771484375 342.0
337.13641357421875 979.0
338.17822265625 321962.0
339.169921875 568.0
340.1838073730469 1719.0
341.1966247558594 239.0
342.2109069824219 28389.0
344.1919860839844 485.0
346.23095703125 1034.0
352.1918029785156 524.0
354.1724548339844 196.0
355.1714782714844 322.0
356.1824951171875 879.0
358.20086669921875 266.0
359.19757080078125 259.0
362.2120056152344 177.0
364.2098693847656 226.0
368.18170166015625 238.0
370.20404052734375 9756.0
371.1388854980469 185.0
372.2156677246094 1275.0
374.2354736328125 6943.0
376.20904541015625 587.0
380.22369384765625 277.0
384.2239074707031 1494.0
385.14874267578125 680.0
386.1877136230469 409.0
387.189453125 254.0
388.21185302734375 1230.0
397.1355895996094 437.0
399.1685485839844 284.0
400.2122497558594 2119.0
402.23052978515625 6079.0
404.2002868652344 479.0
406.1974792480469 167.0
410.17254638671875 175.0
414.1783752441406 327.0
415.1785888671875 207.0
416.2401123046875 470.0
417.171142578125 490.0
418.2237548828125 1009.0
420.18621826171875 189.0
422.19940185546875 393.0
428.19525146484375 1746.0
429.1744384765625 333.0
430.2100524902344 242.0
431.18280029296875 326.0
432.2237243652344 6671.0
434.18658447265625 435.0
436.20953369140625 594.0
438.184326171875 263.0
442.2092590332031 205.0
446.2259216308594 750.0
447.213623046875 340.0
448.2291564941406 355.0
449.1833801269531 408.0
452.2192687988281 561.0
460.2134094238281 16632.0
461.19537353515625 221.0
462.2266845703125 459.0
463.23193359375 174.0
464.24432373046875 65708.0
474.2242431640625 503.0
478.2606506347656 1023.0
479.2279052734375 298.0
492.23944091796875 128507.0
494.25286865234375 878.0
496.2672424316406 129260.0
506.26171875 1383.0
510.2512512207031 409.0
520.2407836914062 166.0
524.2656860351562 690164.0
526.1116943359375 163.0
538.28759765625 251.0
542.2835083007812 234.0
556.2911987304688 913767.0
572.3023681640625 200.0
584.289306640625 164454.0
615.3780517578125 197.0
615.729736328125 254.0
616.318359375 993938.0
617.7789916992188 11067.0
618.0022583007812 632.0
618.1837158203125 1534.0
618.3232421875 1131.0
618.452392578125 303.0
618.5675659179688 172.0
618.7071533203125 518.0
618.8468017578125 385.0
618.9829711914062 203.0
619.1156616210938 216.0
619.234375 270.0
619.3670654296875 301.0
619.5032958984375 294.0
619.6290893554688 340.0
619.7827758789062 175.0
619.9015502929688 319.0
620.0133666992188 234.0
620.16015625 267.0
620.282470703125 267.0
620.4328002929688 220.0
620.5551147460938 251.0
620.6845092773438 208.0
620.79638671875 211.0
620.9572143554688 198.0
621.0831298828125 212.0
621.2125244140625 187.0
621.3174438476562 195.0
621.4853515625 194.0
621.6288452148438 188.0
621.8703002929688 170.0
622.164306640625 190.0
622.801513671875 214.0
622.91357421875 176.0
623.2744140625 178.0
623.453125 176.0
623.7474975585938 187.0
624.0489501953125 189.0
624.4942626953125 296.0
624.978271484375 164.0
625.167724609375 172.0
626.224365234375 180.0
627.08154296875 169.0
627.2115478515625 178.0
628.1080932617188 183.0

Name: Lycobetaine
Precursor_mz: 266.0819794
Cas: 72510-04-4
Adduct: [M]+
Mz: 266.0811697
Comment: Major
Smiles: Oc1cc2c3c(c1)c1cc4c(cc1c[n+]3CC2)OCO4
Formula: C16H12NO3+
Mix: Alkaloids-pos-mix20
Rt: [2.068]
Rt_apex: 2.066695104
Rt_start: 2.026816667
Rt_end: 2.3838
Ms1_intensity: 433508
N_scnas: 52
Ms1_scan_range: [574, 580, 627]
Reci_snr: 0.001474275
Ms2_scan_idx: 900
Pmz_offset: 0.002060589
Entropy: 1.0
Num Peaks: 39
127.05195617675781 554.0
138.0475616455078 176.0
151.05462646484375 1105.0
152.0618438720703 5556.0
153.07415771484375 1590.0
154.0654296875 904.0
163.05381774902344 629.0
165.0615997314453 574.0
167.07078552246094 1614.0
178.0659942626953 2152.0
179.07302856445312 2244.0
180.08102416992188 8335.0
181.06541442871094 996.0
182.09793090820312 860.0
183.07260131835938 258.0
190.06687927246094 1330.0
191.07427978515625 2228.0
192.08433532714844 486.0
195.07167053222656 318.0
196.07846069335938 422.0
206.05722045898438 367.0
207.06971740722656 6714.0
208.07864379882812 77094.0
209.08189392089844 5641.0
210.08958435058594 6479.0
211.0609588623047 225.0
219.07049560546875 273.0
220.07281494140625 1105.0
223.06411743164062 247.0
224.0692138671875 335.0
235.06344604492188 227.0
236.07147216796875 10550.0
237.07949829101562 2284.0
238.08966064453125 5238.0
248.06625366210938 1495.0
264.0668640136719 1807.0
265.0758056640625 275.0
265.26776123046875 450.0
266.08209228515625 228204.0

Name: Rhynchophylline
Precursor_mz: 385.2136748
Cas: 76-66-4
Adduct: [M+H]+
Mz: 385.2121838
Comment: Major
Smiles: CC[C@H]1CN2CC[C@]3(C(=O)Nc4ccccc43)[C@@H]2C[C@@H]1/C(=C\OC)C(=O)OC
Formula: C22H28N2O4
Mix: Alkaloids-pos-mix20
Rt: [2.894]
Rt_apex: 2.893134668
Rt_start: 2.8551
Rt_end: 3.552216667
Ms1_intensity: 6207032
N_scnas: 101
Ms1_scan_range: [698, 704, 800]
Reci_snr: 4.36e-05
Ms2_scan_idx: 1438
Pmz_offset: 0.00413295
Entropy: 0.9898009896278381
Num Peaks: 117
42.03377151489258 3332.0
44.050872802734375 352.0
56.05029296875 31654.0
58.065364837646484 311.0
68.0490951538086 220.0
70.06774139404297 26358.0
75.0457763671875 3832.0
77.03923797607422 1612.0
78.03646850585938 360.0
79.05508422851562 874.0
80.04891204833984 1102.0
81.07042694091797 354.0
82.06282043457031 651.0
85.02962493896484 846.0
89.03951263427734 1653.0
90.04742431640625 1253.0
91.052978515625 4166.0
93.07136535644531 2785.0
94.06366729736328 807.0
95.07355499267578 526.0
96.0792007446289 254.0
97.06524658203125 283.0
98.0980224609375 1518.0
103.05306243896484 403.0
104.04984283447266 1928.0
105.07156372070312 2037.0
106.0635757446289 446.0
108.08056640625 17881.0
109.08959197998047 364.0
110.09740447998047 104254.0
111.08027648925781 1161.0
115.0554428100586 29334.0
116.0525894165039 2958.0
117.05859375 24349.0
118.06742095947266 17912.0
121.06427001953125 349.0
122.0979232788086 735.0
123.0768051147461 1326.0
124.11587524414062 6328.0
125.05885314941406 767.0
126.05422973632812 251.0
127.0519790649414 506.0
128.04730224609375 262.0
129.0560760498047 18819.0
130.06561279296875 4395.0
131.06944274902344 788.0
132.07229614257812 48608.0
133.06439208984375 446.0
134.095947265625 510.0
136.10879516601562 619.0
138.0558319091797 1721.0
139.07839965820312 5770.0
140.04824829101562 3848.0
142.066650390625 71882.0
143.06700134277344 551.0
144.0826416015625 28485.0
145.05287170410156 1135.0
146.0602569580078 684.0
151.0770721435547 225.0
153.09153747558594 2495.0
154.06719970703125 1174.0
156.0821533203125 216.0
158.0625457763672 7175.0
159.07159423828125 492.0
160.07852172851562 527470.0
161.0262908935547 182.0
162.09654235839844 930.0
164.07327270507812 466.0
165.09228515625 245.0
166.089111328125 1176.0
168.10089111328125 1723.0
170.09732055664062 1006.0
171.10362243652344 14942.0
172.07608032226562 6464.0
174.09405517578125 587.0
175.08609008789062 199.0
176.11260986328125 230.0
177.0861053466797 185.0
180.10177612304688 170.0
184.07656860351562 279.0
185.1080780029297 362.0
186.0965118408203 1596.0
187.08375549316406 1992.0
192.10186767578125 201.0
194.1222381591797 6008.0
195.12069702148438 171.0
196.13351440429688 398.0
197.1036376953125 468.0
198.09591674804688 1621.0
208.13333129882812 272.0
213.10470581054688 11130.0
215.1212158203125 43609.0
226.1474151611328 31459.0
237.10113525390625 588.0
238.14601135253906 551.0
240.16213989257812 2351.0
241.13526916503906 10304.0
243.15306091308594 207.0
250.11282348632812 832.0
251.12367248535156 1886.0
265.13983154296875 12515.0
267.154541015625 24778.0
269.1699523925781 90831.0
281.1343688964844 1784.0
293.1763000488281 376.0
295.1379089355469 256.0
297.12542724609375 1060.0
303.1450500488281 254.0
327.1695861816406 237.0
329.1575927734375 429.0
335.1757507324219 359.0
353.19061279296875 76471.0
383.198486328125 2372.0
384.0340576171875 1201.0
385.22027587890625 463827.0
386.6925354003906 265.0
386.80291748046875 159.0

Name: Rhynchophylline
Precursor_mz: 407.1916237
Cas: 76-66-4
Adduct: [M+Na]+
Mz: 407.1941281
Comment: Major
Smiles: CC[C@H]1CN2CC[C@]3(C(=O)Nc4ccccc43)[C@@H]2C[C@@H]1/C(=C\OC)C(=O)OC
Formula: C22H28N2O4
Mix: Alkaloids-pos-mix20
Rt: [2.894]
Rt_apex: 2.91377444
Rt_start: 2.8551
Rt_end: 2.987083333
Ms1_intensity: 38688
N_scnas: 19
Ms1_scan_range: [698, 707, 718]
Reci_snr: 0.046323992
Ms2_scan_idx: 1445
Pmz_offset: 0.003603598
Entropy: 0.9999997615814209
Num Peaks: 8
230.12379455566406 93.0
240.162109375 154.0
248.12152099609375 62.0
269.1698913574219 62.0
351.1311340332031 62.0
407.1963806152344 6844.0
416.3573913574219 379.0
417.3602294921875 123.0

Name: Crassicauline A
Precursor_mz: 644.3428942
Cas: 79592-91-9
Adduct: [M+H]+
Mz: 644.3429232
Comment: Major
Smiles: CCN1C[C@]2(COC)CC[C@H](OC)[C@@]34[C@@H]5C[C@]6(O)[C@@H](OC)C[C@](OC(C)=O)(C([C@H](OC)[C@H]23)[C@@H]14)[C@H]5[C@H]6OC(=O)c1ccc(OC)cc1
Formula: C35H49NO10
Mix: Alkaloids-pos-mix20
Rt: [3.745]
Rt_apex: 3.741893738
Rt_start: 3.670866667
Rt_end: 4.449983333
Ms1_intensity: 23682411
N_scnas: 118
Ms1_scan_range: [818, 828, 937]
Reci_snr: 1.57e-05
Ms2_scan_idx: 2127
Pmz_offset: 0.002517377
Entropy: 0.873559832572937
Num Peaks: 412
44.050865173339844 276.0
45.03240203857422 447.0
47.050052642822266 159.0
51.0223388671875 118.0
56.05028533935547 934.0
58.06642532348633 3718.0
59.050106048583984 298.0
70.064208984375 560.0
71.04967498779297 416.0
72.08014678955078 3607.0
75.0421142578125 1739.0
77.03799438476562 1872.0
79.05257415771484 508.0
80.04889678955078 195.0
82.06407928466797 119.0
84.08114624023438 451.0
85.02961730957031 539.0
88.07544708251953 593.0
91.05297088623047 1383.0
92.02371978759766 1565.0
93.06729125976562 228.0
94.0663833618164 188.0
95.04480743408203 178.0
96.07781219482422 240.0
97.06661987304688 327.0
98.09245300292969 557.0
100.07464599609375 228.0
101.05835723876953 211.0
102.0908432006836 6758.0
103.05304718017578 333.0
105.06867218017578 686.0
107.04862976074219 2661.0
108.08055114746094 3786.0
109.06172943115234 432.0
110.09886932373047 175.0
111.07730865478516 236.0
114.09105682373047 256.0
115.05391693115234 557.0
117.06920623779297 877.0
119.04840087890625 477.0
121.06425476074219 698.0
122.09790802001953 1222.0
123.08145904541016 510.0
124.11429595947266 506.0
125.05883026123047 206.0
126.0873031616211 101.0
128.10604858398438 509.0
129.06881713867188 1151.0
130.06719970703125 110.0
131.0854949951172 1144.0
132.08033752441406 193.0
133.0643768310547 412.0
134.09593200683594 418.0
135.04339599609375 278093.0
136.11041259765625 211.0
137.05674743652344 279.0
138.0887908935547 506.0
139.07176208496094 183.0
140.10470581054688 469.0
141.06813049316406 792.0
142.07833862304688 172.0
143.08544921875 816.0
144.08094787597656 106.0
145.06805419921875 258.0
146.0941619873047 524.0
147.0796356201172 557.0
148.11280822753906 591.0
149.0570831298828 511.0
150.09201049804688 115.0
151.07533264160156 605.0
152.10858154296875 817.0
153.0672149658203 481.0
154.1194305419922 2944.0
155.08262634277344 895.0
157.09890747070312 421.0
158.0942840576172 588.0
159.0821990966797 543.0
160.114013671875 457.0
161.09750366210938 544.0
162.09474182128906 516.0
163.07533264160156 647.0
165.07061767578125 609.0
166.0818634033203 192.0
167.08712768554688 1045.0
168.12998962402344 156.0
169.09396362304688 454.0
170.1082763671875 140.0
171.08157348632812 446.0
172.1110382080078 1103.0
173.09556579589844 618.0
174.09033203125 3037.0
175.07864379882812 207.0
176.1051483154297 619.0
177.08795166015625 417.0
178.1240692138672 1482.0
179.08242797851562 958.0
180.09609985351562 326.0
181.0956268310547 606.0
182.09793090820312 260.0
183.08590698242188 414.0
184.1070098876953 480.0
185.09469604492188 541.0
186.12521362304688 446.0
187.10867309570312 468.0
188.10629272460938 420.0
189.08338928222656 298.0
190.0881805419922 253.0
191.083984375 755.0
192.09600830078125 354.0
193.09706115722656 1324.0
195.08343505859375 463.0
196.1138458251953 235.0
197.0977020263672 456.0
198.12353515625 301.0
199.10845947265625 401.0
200.10972595214844 256.0
201.0975799560547 194.0
202.07589721679688 304.0
203.08859252929688 671.0
204.09579467773438 1279.0
205.09945678710938 1416.0
206.1156463623047 470.0
207.1121368408203 877.0
208.13128662109375 369.0
209.09812927246094 502.0
210.13027954101562 306.0
211.1099090576172 599.0
212.14700317382812 289.0
213.12106323242188 348.0
215.08413696289062 304.0
216.0937957763672 506.0
217.10169982910156 636.0
218.12022399902344 577.0
219.11619567871094 2219.0
220.17066955566406 2307.0
221.09410095214844 888.0
222.13031005859375 354.0
223.11024475097656 971.0
225.12710571289062 432.0
226.12205505371094 224.0
227.10862731933594 272.0
229.10308837890625 590.0
230.15786743164062 199.0
231.1147918701172 1200.0
232.0929412841797 305.0
233.13101196289062 668.0
234.1069793701172 308.0
235.11724853515625 619.0
236.12539672851562 382.0
237.1291961669922 1657.0
238.11997985839844 208.0
239.13670349121094 251.0
241.12216186523438 341.0
242.1518096923828 194.0
243.1114501953125 259.0
244.16726684570312 158.0
246.10079956054688 272.0
247.11233520507812 1650.0
248.14141845703125 392.0
249.1283416748047 1638.0
250.16383361816406 558.0
251.14141845703125 1405.0
252.14320373535156 383.0
253.1268768310547 590.0
254.1549835205078 216.0
255.13584899902344 248.0
256.1725158691406 145.0
258.1325988769531 148.0
259.1166076660156 572.0
260.1522521972656 167.0
261.12646484375 859.0
262.1593017578125 367.0
263.1395568847656 532.0
264.1444396972656 321.0
265.12152099609375 526.0
266.1484680175781 416.0
267.1407165527344 359.0
268.1716003417969 181.0
269.1492004394531 408.0
270.15625 99.0
272.1620788574219 167.0
274.16375732421875 181.0
275.14752197265625 248.0
276.1657409667969 611.0
277.1297302246094 241.0
278.1562805175781 526.0
279.1401672363281 2276.0
280.17041015625 409.0
281.15313720703125 673.0
282.1564636230469 254.0
283.1710205078125 411.0
284.1613464355469 184.0
285.148681640625 192.0
286.1638488769531 411.0
288.14715576171875 101.0
290.1588134765625 419.0
291.14453125 604.0
292.16790771484375 748.0
293.1498107910156 635.0
294.1839294433594 639.0
295.16680908203125 147.0
296.1706237792969 128.0
297.1495666503906 443.0
298.1712951660156 306.0
302.1708984375 110.0
304.169677734375 1666.0
306.177490234375 253.0
307.17034912109375 136.0
308.189453125 1197.0
309.15594482421875 149.0
310.18328857421875 541.0
311.1677551269531 1511.0
312.1959228515625 309.0
313.1065979003906 376.0
314.16534423828125 141.0
318.1878356933594 205.0
320.1659851074219 139.0
321.1762390136719 235.0
322.1905822753906 728.0
323.1737365722656 441.0
324.1962890625 779.0
325.17742919921875 225.0
326.20819091796875 405.0
328.1983642578125 118.0
330.20989990234375 454.0
336.19647216796875 6026.0
338.2065124511719 435.0
340.18890380859375 956.0
342.2082214355469 382.0
343.1876525878906 352.0
345.2419128417969 176.0
350.2139892578125 176.0
352.1890869140625 205.0
353.1932067871094 293.0
354.201416015625 1254.0
355.2110595703125 197.0
356.14532470703125 552.0
358.2379455566406 413.0
362.21990966796875 159.0
368.22467041015625 13314.0
369.2325134277344 1431.0
370.23095703125 763.0
372.2182922363281 708.0
374.2001037597656 152.0
384.2073059082031 242.0
385.2340087890625 104.0
386.2344970703125 733.0
399.1684265136719 149.0
400.2486267089844 5738.0
402.22760009765625 125.0
404.24249267578125 135.0
414.1839599609375 109.0
418.2580871582031 161.0
424.2201843261719 268.0
428.2445068359375 112.0
430.1982727050781 344.0
431.1943359375 540.0
432.279052734375 294.0
433.2015686035156 244.0
434.2010803222656 413.0
437.2270812988281 549.0
442.2091369628906 246.0
443.2012634277344 174.0
444.2152099609375 346.0
445.2125244140625 183.0
446.24951171875 266.0
448.208251953125 197.0
449.221923828125 112.0
450.2337951660156 329.0
456.21795654296875 1269.0
458.2254638671875 231.0
460.2012634277344 724.0
462.22955322265625 1165.0
463.2167053222656 870.0
468.2288818359375 224.0
474.2271728515625 637.0
475.233154296875 809.0
476.23712158203125 908.0
478.2175598144531 348.0
480.2328796386719 228.0
488.2496337890625 15801.0
490.2548828125 1011.0
492.23931884765625 3383.0
494.25897216796875 364.0
495.22662353515625 753.0
505.25482177734375 205.0
506.2489318847656 1527.0
507.2472229003906 383.0
508.27496337890625 99.0
509.2498779296875 135.0
510.2637939453125 472.0
518.2388305664062 109.0
520.2694702148438 257029.0
522.2784423828125 632.0
524.2655029296875 61450.0
537.278564453125 260.0
538.2777099609375 3897.0
548.2572631835938 341.0
550.2733764648438 290.0
552.2965087890625 820859.0
568.2940063476562 175.0
570.3097534179688 988.0
580.296630859375 1658.0
583.3160400390625 158.0
584.3197021484375 992447.0
585.3480224609375 311.0
586.2786865234375 214.0
612.3181762695312 69260.0
643.4400024414062 281.0
643.6927490234375 189.0
643.927734375 242.0
644.066650390625 235.0
644.3480224609375 979004.0
645.6810302734375 8337.0
645.830810546875 13141.0
645.9342041015625 1661.0
646.2552490234375 1569.0
646.39794921875 811.0
646.537109375 202.0
646.6549072265625 133.0
646.7976684570312 528.0
646.9225463867188 439.0
647.072509765625 222.0
647.19384765625 220.0
647.3259887695312 124.0
647.461669921875 333.0
647.6009521484375 254.0
647.7330932617188 332.0
647.8580932617188 175.0
648.0045776367188 290.0
648.1331787109375 274.0
648.2689208984375 220.0
648.401123046875 410.0
648.5262451171875 174.0
648.6870727539062 230.0
648.8193359375 231.0
648.9337158203125 209.0
649.0838623046875 201.0
649.2125854492188 214.0
649.3770751953125 219.0
649.831298828125 193.0
650.0567016601562 182.0
650.267822265625 217.0
650.5076293945312 171.0
650.9121704101562 172.0
651.0768432617188 191.0
651.2308349609375 207.0
651.3489990234375 211.0
651.6857299804688 158.0
651.904296875 207.0
652.259033203125 155.0
652.4203491210938 166.0
652.5816650390625 142.0
652.75732421875 121.0
652.9151000976562 196.0
653.2880859375 174.0
653.53564453125 291.0
653.70068359375 150.0
653.8836669921875 165.0
654.00927734375 117.0
654.2318115234375 170.0
654.6734008789062 143.0
654.960693359375 141.0
655.1438598632812 136.0
655.30908203125 134.0
655.6863403320312 156.0
655.9127807617188 198.0
656.21826171875 150.0
656.696533203125 139.0
656.8583374023438 114.0
657.2324829101562 154.0
657.6966552734375 97.0
657.8118286132812 109.0
657.9450073242188 119.0
658.2689819335938 121.0
658.438232421875 124.0
658.7659912109375 146.0
658.8920288085938 157.0
659.0938110351562 121.0
659.201904296875 107.0
659.562255859375 163.0
660.4094848632812 136.0
660.97216796875 123.0
661.0840454101562 96.0
661.4990234375 94.0
661.7950439453125 114.0
661.9503173828125 111.0
662.1561279296875 123.0
662.4161376953125 98.0
662.5570068359375 87.0
663.623046875 105.0
663.7857666015625 96.0
664.1473999023438 129.0
664.5126953125 155.0
665.2363891601562 110.0
667.529541015625 148.0
667.6419677734375 98.0
668.2295532226562 111.0
669.539794921875 130.0
669.859375 94.0
670.3606567382812 99.0
671.3856811523438 127.0
671.8184814453125 85.0
673.4708862304688 92.0
675.2821044921875 130.0
675.4462280273438 85.0
676.9241943359375 61.0
677.311279296875 122.0
679.6983032226562 87.0
680.50341796875 114.0
685.1827392578125 119.0
685.6346435546875 61.0

Name: Humantenmine
Precursor_mz: 327.1717955
Cas: 82354-38-9
Adduct: [M+H]+
Mz: 327.170319
Comment: Major
Smiles: CCC1=N[C@H]2C[C@@]3(C(=O)N(OC)c4ccccc43)[C@H]3C[C@@H]1[C@@H]2CO3
Formula: C19H22N2O3
Mix: Alkaloids-pos-mix20
Rt: [2.362]
Rt_apex: 2.357100266
Rt_start: 2.3163
Rt_end: 2.896083333
Ms1_intensity: 2643923
N_scnas: 86
Ms1_scan_range: [617, 623, 704]
Reci_snr: 0.0001407
Ms2_scan_idx: 1100
Pmz_offset: 0.00225018
Entropy: 0.9873890280723572
Num Peaks: 163
41.0379524230957 264.0
42.033721923828125 1244.0
43.0423469543457 386.0
44.04895782470703 361.0
45.05684280395508 1959.0
56.050228118896484 2764.0
58.06422805786133 363.0
67.04328155517578 214.0
68.0501708984375 643.0
70.06414031982422 3005.0
71.0732650756836 7582.0
72.04552459716797 266.0
73.05077362060547 2066.0
77.03791809082031 263.0
79.05249786376953 279.0
80.0500717163086 9517.0
81.05770111083984 230.0
82.06399536132812 809.0
84.08106231689453 1722.0
85.08906555175781 1888.0
87.06678009033203 307.0
91.05555725097656 542.0
92.04785919189453 260.0
93.05907440185547 3165.0
94.0662841796875 2261.0
95.07070922851562 7350.0
96.0804672241211 2994.0
97.08587646484375 510.0
98.06177520751953 466.0
103.05722045898438 202.0
106.06490325927734 742.0
107.0717544555664 587.0
108.0804443359375 52041.0
109.08506774902344 3775.0
110.0943374633789 2019.0
111.06684112548828 2339.0
112.07184600830078 1068.0
115.05380249023438 979.0
116.04943084716797 192.0
117.05542755126953 702.0
118.0642318725586 714.0
119.07737731933594 166.0
120.07792663574219 983.0
121.08729553222656 697.0
122.05902099609375 2859.0
123.10624694824219 391.0
124.07352447509766 598.0
125.08068084716797 503.0
127.05025482177734 202.0
128.0503387451172 432.0
129.06390380859375 181.0
130.06387329101562 1818.0
131.07411193847656 306.0
132.04310607910156 1601.0
133.08851623535156 251.0
134.09092712402344 842.0
135.10687255859375 188.0
136.11192321777344 2363.0
138.08865356445312 1787.0
140.05307006835938 194.0
142.0664825439453 526.0
143.07354736328125 3483.0
144.08079528808594 2336.0
145.0898895263672 215.0
146.06008911132812 651.0
148.07167053222656 339.0
150.0901336669922 1208.0
151.09759521484375 496.0
152.05996704101562 453.0
154.06353759765625 1329.0
155.0719757080078 326.0
156.0486602783203 215.0
158.0570831298828 855.0
159.07318115234375 417.0
160.08010864257812 190.0
164.10545349121094 867.0
165.0614471435547 1406.0
166.06179809570312 1110.0
167.06881713867188 872.0
168.0806884765625 2312.0
169.07188415527344 353.0
170.05868530273438 1944.0
172.07403564453125 713.0
178.06582641601562 4381.0
179.0803680419922 948.0
180.08273315429688 3784.0
181.08599853515625 387.0
182.0579833984375 1117.0
183.0667266845703 5489.0
184.0725555419922 1338.0
185.07159423828125 317.0
190.06475830078125 991.0
191.0740966796875 1019.0
192.0802459716797 1610.0
193.0851593017578 549.0
194.0966033935547 1022.0
195.0734405517578 1120.0
196.07826232910156 6540.0
197.07386779785156 1520.0
198.09568786621094 325.0
199.0864715576172 169.0
202.0657196044922 484.0
203.08238220214844 628.0
204.0795440673828 1976.0
205.09120178222656 804.0
206.0993194580078 5726.0
207.0957794189453 689.0
208.07843017578125 4309.0
209.10400390625 1204.0
210.08328247070312 2512.0
211.08929443359375 688.0
212.06912231445312 1744.0
213.1024169921875 669.0
215.06951904296875 851.0
216.06675720214844 171.0
217.07872009277344 289.0
218.09304809570312 495.0
219.08067321777344 905.0
220.08091735839844 1039.0
221.11265563964844 750.0
222.09034729003906 2318.0
223.0869598388672 2377.0
224.10890197753906 16147.0
225.1037139892578 18399.0
226.1534881591797 283.0
227.1189727783203 290.0
228.08229064941406 488.0
229.08798217773438 224.0
230.0959014892578 6820.0
231.08895874023438 1080.0
232.09912109375 582.0
233.08363342285156 4715.0
234.07882690429688 869.0
235.08473205566406 2828.0
236.09495544433594 2156.0
237.1354522705078 1739.0
238.11541748046875 331.0
239.11692810058594 5736.0
240.1314239501953 217.0
246.09173583984375 740.0
247.12091064453125 1064.0
248.10580444335938 10838.0
249.10594177246094 3557.0
250.11474609375 1146.0
251.11892700195312 1647.0
252.1251220703125 318.0
253.13778686523438 508.0
254.15472412109375 542.0
255.11317443847656 362.0
262.1181335449219 341.0
263.1188049316406 1522.0
265.1326599121094 75601.0
266.14593505859375 712.0
267.115234375 4087.0
268.1598205566406 5967.0
277.1318054199219 1105.0
278.144287109375 505.0
279.151611328125 6029.0
281.1246337890625 645.0
295.1448059082031 1245.0
296.1534118652344 200637.0
297.158935546875 2896.0
327.1742858886719 30384.0

Name: 12-Epinapelline
Precursor_mz: 360.2522716
Cas: 110064-71-6
Adduct: [M+H]+
Mz: 360.2533204
Comment: Major
Smiles: C=C1[C@H]2C[C@@]3(C4C[C@@H]5[C@@]6(C)CC[C@H](O)[C@@]5(C4N(CC)C6)[C@@H]3C[C@H]2O)[C@@H]1O
Formula: C22H33NO3
Mix: Alkaloids-pos-mix21
Rt: [3.787]
Rt_apex: 1.424826432
Rt_start: 1.371183333
Rt_end: 1.55085
Ms1_intensity: 48460
N_scnas: 35
Ms1_scan_range: [443, 458, 479]
Reci_snr: 0.014069915
Ms2_scan_idx: 565
Pmz_offset: 0.000544528
Entropy: 1.0000001192092896
Num Peaks: 48
58.06412887573242 315.0
72.08116149902344 215.0
79.05364990234375 42.0
81.07276916503906 70.0
84.07968139648438 103.0
91.05010986328125 90.0
93.06980895996094 65.0
95.0870361328125 110.0
98.09504699707031 192.0
105.0670394897461 217.0
107.08618927001953 66.0
117.07205200195312 69.0
119.08495330810547 75.0
122.09770965576172 74.0
123.11396026611328 40.0
124.10940551757812 60.0
129.06861877441406 58.0
131.08367919921875 124.0
135.08070373535156 53.0
136.11184692382812 52.0
141.06625366210938 39.0
143.08355712890625 88.0
145.10165405273438 78.0
147.11346435546875 59.0
150.12619018554688 41.0
155.09115600585938 39.0
157.1022186279297 62.0
162.12310791015625 37.0
164.14315795898438 148.0
169.09921264648438 101.0
171.11622619628906 119.0
173.13043212890625 54.0
178.15756225585938 67.0
183.11607360839844 52.0
194.1552276611328 79.0
195.1184844970703 50.0
197.1309814453125 59.0
208.16749572753906 182.0
248.20309448242188 206.0
276.1981506347656 395.0
296.24285888671875 68.0
298.25830078125 219.0
314.2471923828125 59.0
316.26800537109375 44.0
324.2364807128906 298.0
332.2606201171875 39.0
359.13873291015625 40.0
360.25390625 14350.0

Name: Hypaphorine
Precursor_mz: 247.1436035
Cas: 487-58-1
Adduct: [M+H]+
Mz: 247.1441043
Comment: Major
Smiles: C[N+](C)(C)[C@@H](Cc1c[nH]c2ccccc12)C(=O)[O-]
Formula: C14H18N2O2
Mix: Alkaloids-pos-mix21
Rt: [1.735]
Rt_apex: 1.732617081
Rt_start: 1.69185
Rt_end: 2.017483333
Ms1_intensity: 707597
N_scnas: 48
Ms1_scan_range: [502, 508, 551]
Reci_snr: 0.000422305
Ms2_scan_idx: 717
Pmz_offset: 0.000227274
Entropy: 0.9997501373291016
Num Peaks: 34
44.05067825317383 2590.0
45.057640075683594 2077.0
60.082061767578125 37606.0
65.0394058227539 557.0
77.03773498535156 896.0
89.03656768798828 2766.0
90.04447174072266 1244.0
91.05268859863281 45192.0
101.0383071899414 154.0
102.04658508300781 123.0
103.05559539794922 630.0
104.04952239990234 328.0
114.04127502441406 92.0
115.05359649658203 47590.0
116.05829620361328 3779.0
117.06129455566406 19792.0
118.0655517578125 248586.0
126.04756927490234 293.0
127.0531997680664 4874.0
128.0485382080078 2113.0
129.0541229248047 251.0
130.06524658203125 622.0
132.07998657226562 1040.0
140.04953002929688 1406.0
141.05609130859375 648.0
142.06459045410156 16069.0
143.0733184814453 43445.0
144.08056640625 37144.0
145.05923461914062 444.0
146.0615692138672 168528.0
155.06126403808594 982.0
160.07278442382812 952.0
170.06028747558594 13719.0
188.0712127685547 45123.0

Name: Hypaphorine
Precursor_mz: 269.1246566
Cas: 487-58-1
Adduct: [M+Na]+
Mz: 269.1260485
Comment: Major
Smiles: C[N+](C)(C)[C@@H](Cc1c[nH]c2ccccc12)C(=O)[O-]
Formula: C14H18N2O2
Mix: Alkaloids-pos-mix21
Rt: [1.735]
Rt_apex: 1.721289741
Rt_start: 1.69185
Rt_end: 1.799166667
Ms1_intensity: 19643
N_scnas: 15
Ms1_scan_range: [502, 506, 518]
Reci_snr: 0.019960974
Ms2_scan_idx: 719
Pmz_offset: 0.003387275
Entropy: 0.9183671474456787
Num Peaks: 9
90.03781127929688 31.0
91.05402374267578 93.0
115.05359649658203 93.0
117.05977630615234 93.0
118.0625 92.0
146.05987548828125 31.0
147.06735229492188 31.0
182.0672149658203 123.0
210.0504913330078 240.0

Name: Songorine
Precursor_mz: 358.2384325
Cas: 509-24-0
Adduct: [M+H]+
Mz: 358.2376703
Comment: Major
Smiles: C=C1[C@@H]2C[C@]3([C@@H]1O)[C@H]1C[C@@H]4[C@@]5(C)CC[C@H](O)[C@@]4(C1N(CC)C5)[C@@H]3CC2=O
Formula: C22H31NO3
Mix: Alkaloids-pos-mix21
Rt: [1.819]
Rt_apex: 1.817088273
Rt_start: 1.732683333
Rt_end: 1.898666667
Ms1_intensity: 2228561
N_scnas: 24
Ms1_scan_range: [508, 521, 533]
Reci_snr: 0.000534474
Ms2_scan_idx: 781
Pmz_offset: 0.002382916
Entropy: 0.812409520149231
Num Peaks: 133
41.03871154785156 405.0
43.019187927246094 467.0
44.05160903930664 1659.0
55.054317474365234 612.0
56.05006790161133 7541.0
58.06620407104492 6071.0
67.05460357666016 1245.0
69.06672668457031 240.0
70.06513977050781 475.0
72.08108520507812 1106.0
77.04019927978516 1341.0
81.07267761230469 2092.0
82.06381225585938 825.0
84.08345031738281 666.0
91.05536651611328 7405.0
93.0710678100586 2921.0
94.06472778320312 417.0
95.0869369506836 1659.0
96.07889556884766 435.0
98.09632873535156 8247.0
102.04658508300781 193.0
103.05702209472656 1001.0
105.07124328613281 11001.0
108.08170318603516 364.0
109.10245513916016 684.0
110.09707641601562 3321.0
112.11621856689453 252.0
117.07344055175781 4228.0
120.08386993408203 200.0
121.06546783447266 1708.0
122.09602355957031 536.0
123.07645416259766 176.0
124.11083221435547 362.0
129.070068359375 6774.0
130.07806396484375 1196.0
131.0867462158203 5404.0
133.0980224609375 2143.0
134.0972137451172 384.0
135.07566833496094 392.0
136.11660766601562 221.0
138.12637329101562 723.0
141.07110595703125 5117.0
142.08132934570312 2097.0
143.08676147460938 8275.0
145.10150146484375 5129.0
146.098876953125 302.0
148.11244201660156 581.0
149.12353515625 215.0
152.05801391601562 348.0
153.07029724121094 1530.0
155.0857391357422 4369.0
156.09751892089844 1404.0
157.1038055419922 5163.0
158.10272216796875 1102.0
159.11366271972656 1798.0
160.11717224121094 286.0
162.1282958984375 1510.0
163.1358642578125 206.0
164.14117431640625 367.0
166.07785034179688 846.0
169.10267639160156 7095.0
171.11788940429688 7020.0
173.13394165039062 1545.0
174.13250732421875 454.0
176.1457061767578 231.0
178.074951171875 911.0
182.11265563964844 507.0
184.11802673339844 346.0
185.1362762451172 3178.0
186.13052368164062 486.0
187.13705444335938 659.0
189.15243530273438 210.0
190.15740966796875 876.0
192.0955810546875 881.0
193.10247802734375 2312.0
194.1022186279297 616.0
195.1202392578125 3235.0
196.12716674804688 402.0
198.1329803466797 512.0
199.1119842529297 659.0
200.14303588867188 2544.0
201.09117126464844 211.0
203.0861358642578 390.0
204.09735107421875 489.0
206.11520385742188 602.0
207.1177520751953 1840.0
208.1267852783203 880.0
209.13623046875 2410.0
210.14202880859375 454.0
213.09397888183594 275.0
214.1605682373047 3646.0
215.16806030273438 1573.0
216.1758575439453 434.0
217.10743713378906 344.0
218.10939025878906 426.0
219.11366271972656 858.0
221.13328552246094 1586.0
222.14239501953125 448.0
223.15379333496094 1045.0
225.12242126464844 410.0
228.1774139404297 376.0
231.1185760498047 379.0
232.12881469726562 432.0
233.1348114013672 438.0
234.1472930908203 315.0
235.1490478515625 1501.0
236.14862060546875 452.0
237.1611328125 1570.0
238.15847778320312 196.0
241.12384033203125 281.0
244.12948608398438 266.0
246.1465301513672 288.0
247.1559600830078 184.0
249.17214965820312 856.0
256.1787414550781 276.0
261.16448974609375 292.0
263.14813232421875 275.0
264.1438903808594 234.0
265.1689758300781 429.0
277.1665954589844 606.0
279.1748046875 1344.0
280.2145080566406 253.0
284.16552734375 169.0
294.18817138671875 856.0
295.1710510253906 239.0
299.1966552734375 335.0
312.239990234375 558.0
322.21771240234375 5513.0
340.2322998046875 613047.0
357.146484375 893.0
358.2426452636719 303472.0
359.4735107421875 189.0
359.6624450683594 185.0

Name: Songorine
Precursor_mz: 380.2193212
Cas: 509-24-0
Adduct: [M+Na]+
Mz: 380.2196146
Comment: Major
Smiles: C=C1[C@@H]2C[C@]3([C@@H]1O)[C@H]1C[C@@H]4[C@@]5(C)CC[C@H](O)[C@@]4(C1N(CC)C5)[C@@H]3CC2=O
Formula: C22H31NO3
Mix: Alkaloids-pos-mix21
Rt: [1.819]
Rt_apex: 1.819541096
Rt_start: 1.779666667
Rt_end: 1.891833333
Ms1_intensity: 13696
N_scnas: 16
Ms1_scan_range: [515, 521, 532]
Reci_snr: 0.00612631
Ms2_scan_idx: 790
Pmz_offset: 0.000575821
Entropy: nan
Num Peaks: 1
380.2256774902344 77.0

Name: Corynoxeine
Precursor_mz: 405.1759714
Cas: 630-94-4
Adduct: [M+Na]+
Mz: 405.178478
Comment: Major
Smiles: C=C[C@H]1CN2CC[C@]3(C(=O)Nc4ccccc43)[C@@H]2C[C@@H]1/C(=C\OC)C(=O)OC
Formula: C22H26N2O4
Mix: Alkaloids-pos-mix21
Rt: [2.777, 2.68]
Rt_apex: 2.765979389
Rt_start: 2.7271
Rt_end: 2.916933333
Ms1_intensity: 54754
N_scnas: 28
Ms1_scan_range: [672, 678, 701]
Reci_snr: 0.013265722
Ms2_scan_idx: 1324
Pmz_offset: 0.002386497
Entropy: 0.9045814871788025
Num Peaks: 11
96.08036041259766 31.0
122.10079193115234 31.0
182.05792236328125 31.0
228.094970703125 77.0
238.15220642089844 140.0
246.1093292236328 46.0
260.12933349609375 62.0
351.1256103515625 268.0
373.1607971191406 46.0
403.9488220214844 46.0
405.17950439453125 7787.0

Name: Wilforgine
Precursor_mz: 858.283721
Cas: 37239-47-7
Adduct: [M+H]+
Mz: 858.2815047
Comment: Major
Smiles: CC(=O)OC[C@]12[C@H](OC(C)=O)[C@H](OC(C)=O)[C@@H]3[C@@H](OC(C)=O)[C@@]14O[C@@]3(C)COC(=O)c1cccnc1CCC(C)C(=O)O[C@@H]([C@H](OC(=O)c1ccoc1)[C@@H]2OC(C)=O)[C@]4(C)O
Formula: C41H47NO19
Mix: Alkaloids-pos-mix21
Rt: [4.628]
Rt_apex: 4.623800568
Rt_start: 4.548783333
Rt_end: 5.299016667
Ms1_intensity: 7090425
N_scnas: 185
Ms1_scan_range: [1033, 1051, 1219]
Reci_snr: 2.79e-05
Ms2_scan_idx: 2231
Pmz_offset: 0.003326431
Entropy: 0.9799027442932129
Num Peaks: 230
43.02007293701172 455.0
89.0364990234375 546.0
90.04573059082031 474.0
91.05529022216797 199.0
92.05162811279297 204.0
93.05474090576172 1066.0
95.01297760009766 31901.0
104.0494384765625 593.0
105.07115173339844 233.0
107.04823303222656 203.0
108.04076385498047 299.0
115.04898071289062 254.0
117.056640625 6708.0
118.0654525756836 522.0
121.0638198852539 274.0
122.05870819091797 293.0
123.04366302490234 334.0
125.05838775634766 172.0
128.06112670898438 382.0
129.06837463378906 364.0
130.06674194335938 1046.0
131.07057189941406 731.0
132.0814971923828 19443.0
133.09304809570312 236.0
134.09384155273438 273.0
136.03628540039062 243.0
137.0562744140625 547.0
141.05931091308594 193.0
142.07618713378906 281.0
143.0849609375 398.0
145.0557403564453 1216.0
146.0563507080078 1084.0
147.08084106445312 450.0
149.05828857421875 481.0
153.0580291748047 189.0
157.10015869140625 584.0
158.06378173828125 305.0
159.08168029785156 329.0
160.07264709472656 23156.0
161.05958557128906 854.0
162.08885192871094 420.0
163.07479858398438 265.0
167.08114624023438 234.0
170.06564331054688 195.0
171.08102416992188 545.0
173.05809020996094 401.0
175.07623291015625 1436.0
177.05564880371094 257.0
178.08604431152344 290927.0
179.0687255859375 311.0
183.0853271484375 360.0
185.0960235595703 2100.0
186.0518798828125 199.0
187.07354736328125 614.0
188.07106018066406 42561.0
189.08859252929688 906.0
190.0895233154297 402.0
191.06399536132812 369.0
195.07891845703125 622.0
197.0951385498047 284.0
199.07418823242188 1082.0
201.09298706054688 1253.0
202.08724975585938 216.0
203.10597229003906 861.0
205.08074951171875 255.0
206.08279418945312 648713.0
207.16200256347656 237.0
211.0807342529297 686.0
213.0917510986328 5601.0
215.0752716064453 408.0
217.0824432373047 1388.0
219.10516357421875 366.0
220.09715270996094 262.0
221.08511352539062 213.0
223.07395935058594 561.0
224.0916748046875 4849.0
227.10162353515625 172.0
229.08541870117188 3099.0
230.08482360839844 615.0
231.101318359375 4851.0
234.11273193359375 2471.0
241.08660888671875 4600.0
243.10418701171875 360.0
245.08624267578125 329.0
247.09397888183594 829.0
248.0920867919922 1352.0
249.11212158203125 716.0
253.083740234375 205.0
255.10150146484375 572.0
259.0978088378906 6374.0
262.1063232421875 7125.0
263.0887451171875 235.0
267.073486328125 204.0
271.0950927734375 613.0
272.0826110839844 361.0
273.11138916015625 776.0
277.1009521484375 1582.0
280.11798095703125 1866.0
283.0993957519531 550.0
289.1167297363281 381.0
291.1269836425781 543.0
300.08551025390625 1902.0
301.10498046875 1586.0
305.0946960449219 187.0
307.1080322265625 292.0
309.076171875 265.0
315.12786865234375 237.0
319.11639404296875 2148.0
323.08709716796875 391.0
325.11077880859375 517.0
333.1353759765625 419.0
335.08746337890625 292.0
337.1251220703125 581.0
341.0867614746094 200.0
343.119140625 445.0
344.146728515625 190.0
353.1052551269531 469.0
361.1274108886719 886.0
365.0985412597656 275.0
371.1108093261719 425.0
379.1397705078125 823.0
383.1177978515625 222.0
390.1736755371094 289.0
395.1150817871094 236.0
406.1539306640625 225.0
408.18145751953125 668.0
413.12689208984375 292.0
416.1387634277344 221.0
418.15948486328125 398.0
421.14642333984375 329.0
431.1379089355469 252.0
432.18463134765625 197.0
434.1649169921875 263.0
436.1761169433594 1098.0
446.1624450683594 745.0
448.180419921875 316.0
454.1868591308594 175.0
460.18206787109375 183.0
464.1765441894531 1147.0
466.1802673339844 196.0
473.1417541503906 400.0
476.1716613769531 337.0
478.197998046875 963.0
482.16497802734375 628.0
488.18646240234375 256.0
494.1735534667969 360.0
496.19091796875 1426.0
506.18145751953125 2582.0
510.22772216796875 296.0
514.2105712890625 268.0
515.1657104492188 312.0
520.2106323242188 207.0
524.1871948242188 4541.0
528.1724243164062 511.0
533.15087890625 181.0
536.1881713867188 202.0
538.214599609375 1542.0
542.2036743164062 1396.0
548.1902465820312 783.0
554.203125 212.0
556.2235717773438 2920.0
566.20703125 9718.0
570.164306640625 201.0
574.2362670898438 185.0
576.181640625 496.0
580.2208862304688 470.0
584.2166137695312 11883.0
588.1783447265625 1046.0
590.2085571289062 247.0
594.2110595703125 269.0
596.2208251953125 229.0
598.2271118164062 5455.0
602.2256469726562 1642.0
606.1857299804688 247.0
608.2225341796875 1896.0
616.24365234375 2137.0
618.1961059570312 850.0
626.2297973632812 32020.0
630.2080078125 341.0
636.2042236328125 1729.0
640.2423095703125 1408.0
644.23974609375 15864.0
648.2174682617188 726.0
650.2127075195312 761.0
654.2303466796875 1141.0
658.253173828125 18334.0
660.2060546875 569.0
662.2413330078125 966.0
668.2352905273438 13697.0
676.2546997070312 673.0
678.2158203125 6017.0
684.1126708984375 599.0
686.2468872070312 244612.0
690.2156372070312 277.0
692.2412109375 309.0
696.2383422851562 9519.0
700.2618408203125 2961.0
704.263427734375 37012.0
710.2422485351562 3115.0
714.2421264648438 475.0
718.2796630859375 3980.0
720.2329711914062 2358.0
728.2583618164062 41959.0
738.248779296875 46073.0
746.2701416015625 123296.0
752.2703857421875 3893.0
756.2478637695312 13723.0
762.245361328125 294.0
770.2710571289062 4352.0
774.2684326171875 461.0
780.2545166015625 51309.0
788.2756958007812 500.0
794.2601928710938 265.0
798.2637939453125 142593.0
812.2854614257812 24862.0
816.27001953125 27884.0
830.2946166992188 25258.0
840.2801513671875 357012.0
857.1978149414062 153.0
857.300537109375 167.0
857.8800048828125 168.0
858.2869262695312 955729.0
860.0145874023438 4308.0
860.1339111328125 1246.0
860.2450561523438 418.0
860.4920654296875 799.0
860.6608276367188 367.0
860.8008422851562 177.0
861.1055297851562 177.0
861.4185180664062 172.0

Name: Wilforgine
Precursor_mz: 880.2646018
Cas: 37239-47-7
Adduct: [M+Na]+
Mz: 880.263449
Comment: Major
Smiles: CC(=O)OC[C@]12[C@H](OC(C)=O)[C@H](OC(C)=O)[C@@H]3[C@@H](OC(C)=O)[C@@]14O[C@@]3(C)COC(=O)c1cccnc1CCC(C)C(=O)O[C@@H]([C@H](OC(=O)c1ccoc1)[C@@H]2OC(C)=O)[C@]4(C)O
Formula: C41H47NO19
Mix: Alkaloids-pos-mix21
Rt: [4.628]
Rt_apex: 4.605553358
Rt_start: 4.564116667
Rt_end: 4.954566667
Ms1_intensity: 294312
N_scnas: 83
Ms1_scan_range: [1037, 1048, 1121]
Reci_snr: 0.002641569
Ms2_scan_idx: 2233
Pmz_offset: 0.000119364
Entropy: 0.9999999403953552
Num Peaks: 26
95.01160430908203 362.0
117.05967712402344 182.0
132.0798797607422 442.0
160.07443237304688 597.0
178.08792114257812 3370.0
179.0856170654297 556.0
188.0691375732422 403.0
206.08480834960938 4463.0
207.0812225341797 1437.0
566.197021484375 180.0
584.2098388671875 304.0
598.2339477539062 205.0
626.2192993164062 374.0
644.2362060546875 366.0
658.2423706054688 374.0
686.2468872070312 1577.0
687.2582397460938 429.0
704.2559814453125 672.0
708.2315673828125 351.0
726.2412719726562 619.0
738.248779296875 229.0
746.2816772460938 749.0
760.204833984375 317.0
768.2587280273438 597.0
820.2482299804688 1363.0
880.2653198242188 165115.0

Name: Piperlongumine
Precursor_mz: 318.1349146
Cas: 20069-09-4
Adduct: [M+H]+
Mz: 318.1335992
Comment: Major
Smiles: COc1cc(/C=C/C(=O)N2CCC=CC2=O)cc(OC)c1OC
Formula: C17H19NO5
Mix: Alkaloids-pos-mix21
Rt: [3.787]
Rt_apex: 3.783857198
Rt_start: 3.737833333
Rt_end: 4.546083333
Ms1_intensity: 3327120
N_scnas: 176
Ms1_scan_range: [855, 864, 1032]
Reci_snr: 0.00010607
Ms2_scan_idx: 1889
Pmz_offset: 0.002359326
Entropy: 0.9990862607955933
Num Peaks: 86
43.01643371582031 410.0
45.0322151184082 790.0
51.02314376831055 239.0
53.0016975402832 569.0
55.01892852783203 717.0
59.01322937011719 210.0
65.03715515136719 746.0
68.99560546875 471.0
76.02857971191406 900.0
77.03775024414062 10666.0
78.04612731933594 7411.0
79.05357360839844 11827.0
89.03791046142578 5699.0
90.04714965820312 3083.0
91.05538177490234 32018.0
92.02613830566406 2271.0
93.0670166015625 1065.0
94.04024505615234 312.0
95.04863739013672 304.0
98.0602035522461 3521.0
101.04114532470703 1311.0
102.04660034179688 50044.0
103.05418395996094 19128.0
104.06098937988281 8029.0
105.03385925292969 4793.0
106.04159545898438 1725.0
107.04978942871094 34815.0
108.05545806884766 504.0
109.06875610351562 211.0
114.04728698730469 939.0
115.0536117553711 2556.0
116.05982971191406 1923.0
117.03398132324219 7697.0
118.04117584228516 16004.0
119.04962158203125 58562.0
120.0577392578125 3205.0
121.06239318847656 8472.0
122.07123565673828 3309.0
129.03501892089844 4933.0
130.04286193847656 48015.0
131.04981994628906 21482.0
132.05419921875 26549.0
133.0316619873047 11703.0
134.0354766845703 2989.0
135.04469299316406 84174.0
136.05442810058594 441.0
139.0730743408203 194.0
142.03952026367188 486.0
143.0498504638672 280.0
144.0570068359375 1926.0
145.02883911132812 5705.0
146.03614807128906 8079.0
147.0452423095703 223942.0
148.0526885986328 17422.0
149.06015014648438 29484.0
150.06759643554688 9797.0
151.07669067382812 474.0
152.04937744140625 310.0
157.0352325439453 1458.0
158.03570556640625 4207.0
159.04466247558594 4130.0
160.05149841308594 30418.0
161.0597381591797 28707.0
162.06756591796875 169817.0
163.04090881347656 240920.0
165.08828735351562 2172.0
167.06678771972656 1645.0
170.03286743164062 854.0
171.04998779296875 180.0
172.04989624023438 600.0
173.02503967285156 1805.0
174.0325469970703 13844.0
175.03927612304688 125927.0
176.04702758789062 31488.0
177.05581665039062 27362.0
178.06375122070312 170012.0
187.04110717773438 1291.0
188.0462188720703 8208.0
189.05596923828125 22283.0
190.06455993652344 588373.0
191.0370330810547 91482.0
192.0819854736328 189.0
193.08689880371094 377850.0
205.0528106689453 4166.0
206.05882263183594 165551.0
221.08323669433594 909478.0

Name: Piperlongumine
Precursor_mz: 318.132739
Cas: 20069-09-4
Adduct: [M+H]+
Mz: 318.1335992
Comment: isomer
Smiles: COc1cc(/C=C/C(=O)N2CCC=CC2=O)cc(OC)c1OC
Formula: C17H19NO5
Mix: Alkaloids-pos-mix21
Rt: [3.787]
Rt_apex: 3.427660547
Rt_start: 3.377733333
Rt_end: 3.49735
Ms1_intensity: 34011
N_scnas: 24
Ms1_scan_range: [781, 789, 806]
Reci_snr: 0.001241155
Ms2_scan_idx: 1736
Pmz_offset: 0.000183712
Entropy: 0.9999998807907104
Num Peaks: 29
91.05543518066406 184.0
102.04666900634766 221.0
103.05709838867188 122.0
107.04985809326172 110.0
118.03972625732422 184.0
119.04816436767578 428.0
129.03509521484375 109.0
130.04135131835938 227.0
131.0450897216797 138.0
132.05267333984375 209.0
133.0269012451172 120.0
135.04315185546875 452.0
147.0402374267578 718.0
148.05108642578125 94.0
149.05853271484375 159.0
160.05160522460938 121.0
161.0580596923828 194.0
162.0676727294922 682.0
163.041015625 847.0
174.0326690673828 77.0
175.03567504882812 439.0
176.04901123046875 137.0
177.0522003173828 139.0
178.06573486328125 537.0
190.062744140625 1195.0
191.0332794189453 404.0
193.08702087402344 813.0
206.05694580078125 359.0
221.081298828125 1783.0

Name: Piperlongumine
Precursor_mz: 340.1169427
Cas: 20069-09-4
Adduct: [M+Na]+
Mz: 340.1155434
Comment: Major
Smiles: COc1cc(/C=C/C(=O)N2CCC=CC2=O)cc(OC)c1OC
Formula: C17H19NO5
Mix: Alkaloids-pos-mix21
Rt: [3.787]
Rt_apex: 3.781009166
Rt_start: 3.737833333
Rt_end: 3.879533333
Ms1_intensity: 547217
N_scnas: 23
Ms1_scan_range: [855, 864, 879]
Reci_snr: 0.0005326
Ms2_scan_idx: 1882
Pmz_offset: 0.00183221
Entropy: 1.0
Num Peaks: 5
103.05133819580078 62.0
147.0469512939453 62.0
221.0936737060547 92.0
325.10601806640625 62.0
340.12103271484375 3510.0

Name: Bullatine A
Precursor_mz: 344.2579369
Cas: 1354-84-3
Adduct: [M+H]+
Mz: 344.2584058
Comment: Major
Smiles: C=C1C2CCC3(C([C@H]2O)[C@@]24CCC[C@@]5(C)CN(CC)C2[C@@H]3C[C@@H]45)[C@@H]1O
Formula: C22H33NO2
Mix: Alkaloids-pos-mix21
Rt: [1.805]
Rt_apex: 1.801220091
Rt_start: 1.773166667
Rt_end: 2.017483333
Ms1_intensity: 2710486
N_scnas: 36
Ms1_scan_range: [514, 518, 551]
Reci_snr: 3.2e-05
Ms2_scan_idx: 758
Pmz_offset: 0.001899957
Entropy: 0.8838641047477722
Num Peaks: 105
41.03691482543945 409.0
42.0335807800293 171.0
44.04881286621094 1038.0
46.0635986328125 536.0
56.04901885986328 270.0
58.06513595581055 176912.0
67.05345916748047 1393.0
69.06905364990234 241.0
72.08108520507812 7104.0
79.0548095703125 2559.0
81.06888580322266 2203.0
84.08087921142578 387.0
86.09507751464844 1269.0
91.05536651611328 6425.0
93.06970977783203 3348.0
95.08419799804688 1975.0
98.09494018554688 1801.0
105.07267761230469 6505.0
107.08462524414062 2074.0
109.10245513916016 584.0
112.11473083496094 236.0
115.05509948730469 1680.0
117.06888580322266 4460.0
119.08482360839844 2831.0
121.10252380371094 317.0
123.0795669555664 398.0
124.11083221435547 292.0
127.0547866821289 221.0
128.06442260742188 2076.0
130.07965087890625 481.0
131.08836364746094 4883.0
133.09963989257812 2057.0
136.1116943359375 254.0
141.07110595703125 2672.0
142.07965087890625 1273.0
145.10317993164062 3438.0
147.12010192871094 1291.0
150.1260223388672 221.0
152.0614776611328 412.0
153.07203674316406 730.0
154.0824737548828 607.0
155.083984375 3518.0
156.09226989746094 591.0
159.1154327392578 1267.0
161.0953369140625 454.0
165.06842041015625 1361.0
166.07965087890625 818.0
167.08489990234375 1824.0
168.0931854248047 682.0
169.10086059570312 2905.0
170.10971069335938 327.0
171.11788940429688 3094.0
172.127197265625 225.0
173.13209533691406 923.0
174.12879943847656 242.0
175.11537170410156 258.0
179.0857696533203 2015.0
180.0937957763672 826.0
181.1008758544922 2438.0
182.10887145996094 498.0
183.11965942382812 3069.0
186.126708984375 203.0
187.1466522216797 351.0
188.14820861816406 215.0
189.12734985351562 238.0
191.08743286132812 580.0
192.09751892089844 1127.0
193.10247802734375 2408.0
195.11631774902344 2567.0
196.11929321289062 470.0
197.1327362060547 1550.0
198.13890075683594 186.0
199.14366149902344 401.0
204.0953369140625 194.0
207.11572265625 1601.0
208.124755859375 386.0
209.1342010498047 1265.0
210.14202880859375 196.0
213.130859375 305.0
220.1243896484375 1177.0
221.13328552246094 1927.0
222.1444854736328 310.0
223.1475067138672 1114.0
225.1624298095703 626.0
234.14083862304688 378.0
235.1490478515625 10539.0
239.1448974609375 1768.0
246.1839599609375 179.0
251.1809539794922 462.0
253.20005798339844 406.0
260.19927978515625 2532.0
269.1900939941406 261.0
280.212158203125 209.0
281.192626953125 389.0
298.2216491699219 473.0
308.2381591796875 536.0
326.2507019042969 2493.0
343.20782470703125 4842.0
344.2615661621094 1334641.0
345.22564697265625 3539.0
345.343017578125 3880.0
345.457763671875 586.0
345.65863037109375 1090.0
346.0553283691406 219.0
346.15716552734375 173.0

Name: Leonurine hydrochloride
Precursor_mz: 312.1563094
Cas: 24735-18-0
Adduct: [M+H]+
Mz: 312.1553972
Comment: Major
Smiles: COc1cc(C(=O)OCCCCNC(=N)N)cc(OC)c1O
Formula: C14H21N3O5
Mix: Alkaloids-pos-mix21
Rt: [2.193]
Rt_apex: 2.19046521
Rt_start: 2.151816667
Rt_end: 2.352466667
Ms1_intensity: 695842
N_scnas: 34
Ms1_scan_range: [572, 578, 607]
Reci_snr: 0.001200606
Ms2_scan_idx: 1040
Pmz_offset: 6.46e-05
Entropy: 0.9999997615814209
Num Peaks: 40
41.03874206542969 626.0
43.02842712402344 851.0
44.04977798461914 305.0
55.02936935424805 3403.0
60.055999755859375 996.0
65.0394515991211 3521.0
67.05465698242188 1212.0
72.08232879638672 24559.0
73.06744384765625 881.0
77.03656005859375 1108.0
79.05361938476562 225.0
81.0335693359375 325.0
82.0409927368164 2077.0
85.02681732177734 3255.0
90.09248352050781 1092.0
93.0332260131836 2579.0
95.05005645751953 788.0
97.07745361328125 17199.0
108.02196502685547 1664.0
110.03679656982422 3656.0
114.1028060913086 17928.0
115.08528900146484 221.0
123.00804901123047 1398.0
125.06329345703125 1654.0
130.10215759277344 178.0
132.11395263671875 6141.0
137.02691650390625 699.0
138.032470703125 2812.0
140.0463104248047 1573.0
153.0565185546875 14499.0
155.07186889648438 446.0
165.01806640625 623.0
171.06845092773438 266.0
180.0637969970703 373.0
181.05001831054688 121784.0
198.0778045654297 257.0
253.11538696289062 178.0
254.1143798828125 200.0
296.1388854980469 189.0
312.1608581542969 7285.0

Name: Liensinine diperchlorate
Precursor_mz: 633.2923573
Cas: 5088-90-4
Adduct: [M+Na]+
Mz: 633.2935078
Comment: Major
Smiles: COc1cc2c(cc1OC)C(Cc1ccc(O)c(Oc3cc4c(cc3OC)CCN(C)[C@@H]4Cc3ccc(O)cc3)c1)N(C)CC2
Formula: C37H42N2O6
Mix: Alkaloids-pos-mix21
Rt: [2.138]
Rt_apex: 2.134093815
Rt_start: 2.098316667
Rt_end: 2.293316667
Ms1_intensity: 8317
N_scnas: 31
Ms1_scan_range: [564, 569, 596]
Reci_snr: 0.006578941
Ms2_scan_idx: 983
Pmz_offset: 0.001553811
Entropy: 0.9999999403953552
Num Peaks: 9
199.05838012695312 123.0
206.11907958984375 62.0
214.08238220214844 154.0
305.10455322265625 123.0
306.11041259765625 225.0
395.14862060546875 62.0
493.2007751464844 62.0
511.220458984375 1626.0
633.29443359375 1056.0

Name: (+)-Magnoflorine chloride
Precursor_mz: 342.169572
Cas: 6681-18-1
Adduct: [M]+
Mz: 342.1699847
Comment: Major
Smiles: COc1ccc2c(c1O)-c1c(O)c(OC)cc3c1[C@H](C2)[N+](C)(C)CC3
Formula: C20H24NO4+
Mix: Alkaloids-pos-mix22
Rt: [2.514]
Rt_apex: 2.489117932
Rt_start: 2.27145
Rt_end: 2.72475
Ms1_intensity: 2958615
N_scnas: 72
Ms1_scan_range: [591, 627, 664]
Reci_snr: 0.000170861
Ms2_scan_idx: 1122
Pmz_offset: 0.001929171
Entropy: 0.8815602660179138
Num Peaks: 114
65.04049682617188 559.0
77.03768920898438 643.0
79.05477142333984 901.0
89.03785705566406 315.0
91.0553207397461 17394.0
95.0499496459961 1100.0
103.05697631835938 790.0
104.06237030029297 202.0
105.07119750976562 2068.0
106.06177520751953 1198.0
107.04827880859375 1677.0
108.05831909179688 779.0
109.0628433227539 169.0
115.05205535888672 1085.0
116.04918670654297 431.0
117.05670166015625 421.0
118.0670394897461 1209.0
119.05109405517578 11248.0
120.04692077636719 373.0
121.06851959228516 784.0
122.07427978515625 176.0
123.07953643798828 912.0
130.06521606445312 182.0
131.04815673828125 946.0
132.0605926513672 214.0
133.06398010253906 1016.0
134.06141662597656 16630.0
135.06910705566406 16863.0
136.052734375 3162.0
137.0645751953125 894.0
138.0702667236328 187.0
143.0514678955078 1355.0
146.06492614746094 831.0
147.0707244873047 758.0
148.0782470703125 478.0
149.0601043701172 1034.0
150.0692596435547 7268.0
151.078369140625 38712.0
158.06387329101562 466.0
159.0658416748047 225.0
160.07630920410156 600.0
161.0489959716797 1708.0
162.05679321289062 1624.0
163.06414794921875 222791.0
164.08721923828125 652.0
165.0918426513672 8140.0
174.09915161132812 279.0
175.0782012939453 1202.0
176.0730438232422 9702.0
177.0781707763672 712.0
178.08990478515625 733548.0
179.09326171875 496.0
189.07907104492188 371.0
190.08384704589844 2013.0
191.10098266601562 3250.0
192.10333251953125 1678.0
195.08885192871094 208.0
203.0921173095703 215.0
204.10133361816406 1003.0
207.0813751220703 355.0
218.0762176513672 218.0
219.08456420898438 435.0
221.1040496826172 356.0
222.104736328125 333.0
223.0783233642578 516.0
231.08656311035156 177.0
233.10052490234375 235.0
234.09788513183594 420.0
235.08016967773438 526.0
237.09413146972656 294.0
238.093505859375 213.0
239.11233520507812 153.0
247.0787353515625 275.0
248.0790252685547 299.0
249.09683227539062 666.0
250.10562133789062 539.0
251.1031036376953 1020.0
252.10926818847656 244.0
253.13082885742188 320.0
261.11688232421875 254.0
262.0974426269531 267.0
263.100341796875 296.0
264.1005859375 196.0
265.1118469238281 829.0
266.12506103515625 1227.0
267.1126708984375 826.0
268.1021423339844 456.0
278.0925598144531 277.0
279.1044616699219 1676.0
280.1369934082031 792.0
281.1173095703125 1288.0
282.1158447265625 460.0
283.12322998046875 723.0
284.1418762207031 568.0
292.1313781738281 621.0
293.1204528808594 1270.0
294.1231994628906 2747.0
295.10357666015625 1240.0
296.1314392089844 1169.0
297.1369323730469 458.0
298.1465148925781 1206.0
308.13470458984375 3233.0
309.1455078125 443.0
310.15057373046875 997.0
311.12261962890625 490.0
312.13092041015625 1884.0
313.1532287597656 518.0
324.16790771484375 191.0
325.146484375 826.0
326.1442565917969 7465.0
327.1461181640625 3027.0
340.1624450683594 255.0
341.1311340332031 484.0
342.1764831542969 171075.0

Name: Flaconitine
Precursor_mz: 688.3373576
Cas: 77181-26-1
Adduct: [M+H]+
Mz: 688.3327525
Comment: Major
Smiles: CCN1C[C@@]2(COC)[C@H]3[C@@H](OC)[C@H]4C1[C@]3([C@@H](OC)C[C@H]2OC(C)=O)[C@@H]1C[C@]2(O)[C@@H](OC)[C@H](O)[C@@]4(OC(C)=O)[C@H]1[C@H]2OC(=O)c1ccccc1
Formula: C36H49NO12
Mix: Alkaloids-pos-mix22
Rt: [3.683]
Rt_apex: 3.680053124
Rt_start: 3.635683333
Rt_end: 4.054966667
Ms1_intensity: 18452760
N_scnas: 77
Ms1_scan_range: [829, 836, 907]
Reci_snr: 5.73e-05
Ms2_scan_idx: 1691
Pmz_offset: 0.003887857
Entropy: 0.91800457239151
Num Peaks: 432
44.0496940612793 151.0
45.03310012817383 677.0
51.02307891845703 221.0
56.0489616394043 574.0
58.06507873535156 7812.0
71.04818725585938 295.0
72.08221435546875 184.0
75.04302215576172 1489.0
77.03890228271484 4535.0
79.05599975585938 292.0
81.0700912475586 155.0
84.08209991455078 187.0
85.02928161621094 519.0
86.05856323242188 78.0
88.0777359008789 444.0
91.05261993408203 886.0
93.06558227539062 113.0
94.06194305419922 125.0
95.0485610961914 150.0
96.07608032226562 208.0
101.05940246582031 175.0
102.08905792236328 459.0
105.03377532958984 78725.0
106.0675277709961 113.0
107.0526123046875 159.0
108.08309173583984 1147.0
109.06427764892578 1073.0
110.0984878540039 213.0
111.08135986328125 2099.0
114.09066772460938 223.0
115.05503845214844 438.0
116.0612564086914 163.0
117.0703353881836 715.0
119.04800415039062 249.0
121.06230926513672 688.0
122.09596252441406 1162.0
123.04524993896484 210.0
124.07793426513672 149.0
125.06156921386719 77.0
128.06117248535156 499.0
129.07000732421875 1697.0
130.065185546875 197.0
131.08668518066406 1433.0
132.07992553710938 282.0
133.02833557128906 277.0
134.09713745117188 448.0
135.078857421875 648.0
136.0723419189453 125.0
137.06124877929688 1837.0
138.09332275390625 237.0
140.10594177246094 434.0
141.08937072753906 881.0
142.0845947265625 162.0
143.0833282470703 404.0
144.08555603027344 118.0
145.06593322753906 246.0
146.0971221923828 658.0
147.0843048095703 683.0
148.11236572265625 215.0
149.056640625 213.0
150.08984375 133.0
152.10813903808594 4154.0
153.0702362060547 445.0
154.12246704101562 420.0
155.08567810058594 481.0
157.06503295898438 318.0
158.09559631347656 741.0
159.08351135253906 1202.0
160.11178588867188 395.0
161.09349060058594 809.0
162.0924835205078 267.0
163.07485961914062 155.0
164.1051483154297 225.0
165.06655883789062 1050.0
166.08139038085938 173.0
167.08665466308594 646.0
169.0679473876953 381.0
171.0829315185547 513.0
172.11239624023438 964.0
173.0950927734375 402.0
174.0935516357422 6055.0
175.07260131835938 205.0
176.10838317871094 162.0
177.05386352539062 377.0
178.1198272705078 420.0
179.08383178710938 893.0
181.10081481933594 445.0
182.1201629638672 238.0
183.0797119140625 314.0
184.11033630371094 1123.0
185.0980224609375 486.0
186.13046264648438 2172.0
187.08131408691406 176.0
188.07115173339844 1855.0
189.0771026611328 389.0
190.08767700195312 1048.0
191.0873565673828 792.0
192.0974578857422 369.0
193.10240173339844 1165.0
194.0767364501953 123.0
195.07704162597656 623.0
196.11529541015625 354.0
197.09129333496094 406.0
198.12303161621094 410.0
199.0723114013672 259.0
200.1072235107422 177.0
201.09109497070312 430.0
202.08535766601562 2532.0
203.08807373046875 1035.0
204.09527587890625 497.0
205.1029510498047 3281.0
206.11915588378906 266.0
207.08132934570312 771.0
208.10646057128906 188.0
209.0955810546875 627.0
210.1317901611328 328.0
211.1053009033203 302.0
212.10968017578125 151.0
213.09800720214844 258.0
215.08566284179688 856.0
216.14071655273438 667.0
217.10116577148438 2114.0
218.15492248535156 9310.0
219.0865936279297 880.0
220.09725952148438 500.0
221.09774780273438 990.0
222.127685546875 252.0
223.11180114746094 1007.0
225.09288024902344 399.0
227.10597229003906 258.0
228.13919067382812 275.0
229.0919189453125 337.0
230.11474609375 129.0
231.08651733398438 343.0
232.0902557373047 348.0
233.1004638671875 4121.0
234.1107177734375 454.0
235.11024475097656 2058.0
236.1399383544922 224.0
237.12864685058594 694.0
238.12159729003906 209.0
239.10577392578125 517.0
240.13763427734375 142.0
241.08456420898438 121.0
243.07806396484375 350.0
245.09735107421875 795.0
246.1222381591797 201.0
247.1117706298828 1148.0
248.14527893066406 263.0
249.12777709960938 1134.0
250.11888122558594 283.0
251.10971069335938 1381.0
252.1426239013672 189.0
253.1240692138672 370.0
254.15887451171875 132.0
255.13975524902344 235.0
256.13824462890625 121.0
257.10040283203125 218.0
258.14556884765625 177.0
259.0979309082031 143.0
260.1380920410156 164.0
261.0964050292969 2853.0
262.16552734375 343.0
263.1070861816406 1547.0
264.1438293457031 410.0
265.1209411621094 2395.0
266.1593322753906 251.0
267.11260986328125 384.0
268.1480407714844 160.0
269.1186828613281 285.0
270.14874267578125 167.0
271.13916015625 96.0
272.1499328613281 302.0
273.0953063964844 392.0
274.1538391113281 143.0
275.10968017578125 828.0
276.1441345214844 407.0
277.1268005371094 486.0
278.1556701660156 563.0
279.10675048828125 1146.0
280.1721496582031 160.0
281.1525573730469 404.0
282.158203125 194.0
283.13262939453125 519.0
285.13623046875 101.0
286.1513671875 97.0
287.0993347167969 160.0
289.1312255859375 204.0
290.15582275390625 1341.0
292.12890625 260.0
293.1179504394531 4959.0
294.1905212402344 255.0
295.13482666015625 614.0
296.1676025390625 384.0
297.1489562988281 501.0
299.1310729980469 144.0
302.1751403808594 152.0
304.1739196777344 289.0
305.1341247558594 1149.0
306.1547546386719 1042.0
307.14019775390625 445.0
308.1690979003906 342.0
310.1084899902344 563.0
311.12255859375 615.0
313.1407470703125 195.0
314.17962646484375 186.0
317.1517028808594 68.0
318.15216064453125 2505.0
319.1441650390625 141.0
320.1703796386719 307.0
321.14288330078125 131.0
322.1849060058594 1849.0
323.1251525878906 158.0
324.16278076171875 515.0
325.14892578125 2172.0
326.2176818847656 1121.0
327.1612548828125 201.0
328.1926574707031 222.0
329.1619873046875 93.0
332.1655578613281 348.0
335.15447998046875 258.0
336.162353515625 322.0
337.14080810546875 205.0
338.17230224609375 420.0
339.1536560058594 198.0
340.1985778808594 313.0
342.1348876953125 239.0
343.15838623046875 188.0
350.1791687011719 17375.0
351.19622802734375 173.0
352.19366455078125 405.0
353.1556091308594 85.0
354.2086486816406 12042.0
356.1922912597656 331.0
357.1729431152344 1477.0
358.23992919921875 492.0
359.13031005859375 227.0
362.18450927734375 64.0
364.17962646484375 281.0
365.15777587890625 67.0
367.17987060546875 94.0
368.1916809082031 579.0
369.1590270996094 143.0
370.2086486816406 215.0
371.15972900390625 103.0
372.2229919433594 95.0
373.135986328125 58.0
374.19940185546875 153.0
375.1827697753906 58.0
378.17877197265625 79.0
380.1845703125 64.0
382.2066650390625 3585.0
383.1290588378906 581.0
384.2203369140625 177.0
385.14239501953125 194.0
386.236572265625 3305.0
387.1610412597656 180.0
388.2165832519531 315.0
389.2015686035156 220.0
392.230712890625 243.0
396.22357177734375 349.0
398.1925964355469 170.0
399.20416259765625 147.0
400.2170104980469 442.0
401.1327819824219 75.0
404.19097900390625 109.0
406.2192687988281 70.0
408.9504699707031 145.0
410.2001037597656 47268.0
412.19781494140625 275.0
414.22894287109375 6800.0
415.16058349609375 611.0
416.2135009765625 227.0
417.1875 181.0
418.2659606933594 2957.0
419.187744140625 245.0
426.1958923339844 164.0
428.1914978027344 898.0
429.170654296875 167.0
430.2091979980469 176.0
431.2198181152344 109.0
432.2403869628906 221.0
433.165771484375 68.0
434.2120361328125 125.0
436.22039794921875 260.0
440.192138671875 1311.0
442.2261047363281 1061.0
443.1975402832031 60.0
444.2144470214844 903.0
446.2546691894531 13481.0
447.1830749511719 1365.0
449.19439697265625 74.0
450.2270812988281 190.0
452.251220703125 148.0
454.21112060546875 129.0
458.2126770019531 220.0
459.1925048828125 222.0
460.2215576171875 1836.0
461.2035217285156 193.0
462.2227478027344 331.0
466.2078857421875 67.0
472.214599609375 6387.0
474.2416687011719 950.0
476.2455139160156 27536.0
478.2259826660156 2713.0
479.21160888671875 348.0
486.23223876953125 202.0
489.21990966796875 163.0
490.22613525390625 568.0
491.2333679199219 112.0
492.2447509765625 919.0
494.25506591796875 85.0
496.2413024902344 100.0
500.2195129394531 102.0
504.2450866699219 40722.0
506.2734069824219 607.0
507.2116394042969 506.0
508.27099609375 6694.0
510.25030517578125 3511.0
518.2540283203125 426.0
520.230224609375 240.0
522.255126953125 993.0
532.2411499023438 860.0
534.2698364257812 67.0
536.2666015625 218917.0
550.2758178710938 332.0
552.2528076171875 449.0
554.2894897460938 448.0
564.2656860351562 11245.0
566.2843017578125 167.0
568.2965087890625 213429.0
570.2518920898438 106.0
582.2581176757812 142.0
583.2880249023438 100.0
584.2951049804688 84.0
586.3118286132812 179.0
596.2898559570312 279699.0
610.3152465820312 82.0
612.275634765625 60.0
614.287841796875 88.0
624.2827758789062 147.0
628.0015258789062 93.0
628.318115234375 854778.0
644.3186645507812 128.0
646.33642578125 95.0
656.314453125 2662.0
687.3875732421875 231.0
687.509033203125 139.0
687.9764404296875 198.0
688.3372192382812 975238.0
689.891845703125 10965.0
690.1240844726562 406.0
690.3120727539062 1579.0
690.4632568359375 697.0
690.8689575195312 415.0
691.0091552734375 292.0
691.1566772460938 145.0
691.2969360351562 133.0
691.5552368164062 249.0
691.70654296875 184.0
691.8541870117188 210.0
691.9907836914062 172.0
692.1126098632812 236.0
692.2344360351562 193.0
692.3931884765625 176.0
692.5335083007812 225.0
692.6591186523438 124.0
692.8290405273438 128.0
692.9398193359375 148.0
693.1098022460938 157.0
693.36474609375 171.0
693.7379760742188 163.0
693.8895874023438 134.0
694.0670166015625 169.0
694.3221435546875 136.0
694.6179809570312 150.0
694.7696533203125 142.0
695.0211791992188 130.0
695.3875122070312 98.0
695.5762939453125 140.0
696.04638671875 105.0
696.2352294921875 102.0
696.6611328125 132.0
696.8908081054688 123.0
697.1649780273438 152.0
697.3465576171875 118.0
697.580078125 124.0
697.7283325195312 126.0
697.8914184570312 114.0
698.4216918945312 110.0
698.5403442382812 106.0
698.8148803710938 137.0
699.0151977539062 112.0
699.178466796875 132.0
699.67578125 97.0
699.9653930664062 99.0
700.4592895507812 97.0
701.2394409179688 98.0
701.4661865234375 112.0
701.5702514648438 88.0
701.7003173828125 88.0
702.0349731445312 89.0
702.4998168945312 78.0
702.8978881835938 98.0
703.225341796875 68.0
703.5863647460938 70.0
703.9176635742188 102.0
704.0889892578125 74.0
704.2677001953125 91.0
704.9494018554688 89.0
705.374267578125 123.0
705.5046997070312 78.0
705.7991943359375 85.0
705.9931030273438 82.0
706.3660278320312 107.0
706.7465209960938 79.0
707.802734375 95.0
707.9483032226562 71.0
708.056640625 99.0
708.2470703125 75.0
708.7139892578125 94.0
709.5922241210938 74.0
710.8825073242188 64.0
711.0059814453125 66.0
712.2638549804688 71.0
712.376220703125 60.0
713.028076171875 66.0
713.3504028320312 65.0
716.1605224609375 58.0
719.0138549804688 71.0
719.4278564453125 66.0
719.8080444335938 93.0

Name: L-Sophoridine
Precursor_mz: 249.196608
Cas: 83148-91-8
Adduct: [M+H]+
Mz: 249.1961399
Comment: Major
Smiles: O=C1CCC[C@H]2[C@@H]3CCCN4CCC[C@@H](CN12)[C@H]34
Formula: C15H24N2O
Mix: Alkaloids-pos-mix22
Rt: [1.35]
Rt_apex: 1.351209753
Rt_start: 1.28485
Rt_end: 1.7631
Ms1_intensity: 1577575
N_scnas: 93
Ms1_scan_range: [407, 419, 501]
Reci_snr: 0.000283404
Ms2_scan_idx: 526
Pmz_offset: 0.00172214
Entropy: 0.9687095284461975
Num Peaks: 99
41.03957748413086 1133.0
42.03263854980469 551.0
43.054141998291016 331.0
44.049713134765625 3346.0
53.03844451904297 208.0
55.018890380859375 2531.0
56.051090240478516 1728.0
58.06724548339844 827.0
65.03824615478516 312.0
67.05572509765625 3348.0
68.04765319824219 565.0
69.0701904296875 484.0
70.0662841796875 10645.0
72.07867431640625 205.0
77.04016876220703 1701.0
79.0547866821289 4558.0
80.0511245727539 1289.0
81.06886291503906 3506.0
82.0676040649414 2459.0
83.07501220703125 630.0
84.08213806152344 15749.0
91.05266571044922 4627.0
93.06968688964844 5751.0
94.06607055664062 2163.0
95.08417510986328 745.0
96.08162689208984 7098.0
97.08842468261719 830.0
98.06017303466797 6965.0
99.0926284790039 334.0
100.07853698730469 377.0
103.05415344238281 1315.0
105.06978607177734 1827.0
106.06613159179688 1480.0
107.0860595703125 2378.0
108.0802230834961 3564.0
109.09950256347656 999.0
110.09706115722656 5706.0
112.07756805419922 12513.0
114.09371948242188 267.0
115.05358123779297 306.0
117.07038879394531 1210.0
118.06706237792969 958.0
120.08078002929688 9691.0
121.09015655517578 857.0
122.09756469726562 5891.0
123.1044692993164 552.0
124.1108169555664 2687.0
129.0732421875 295.0
130.0636444091797 394.0
131.08514404296875 1018.0
133.09153747558594 932.0
134.09556579589844 5066.0
135.10337829589844 1251.0
136.1133270263672 8200.0
137.12374877929688 522.0
138.12966918945312 2241.0
143.0884246826172 196.0
144.08056640625 249.0
145.10487365722656 988.0
146.098876953125 783.0
147.1047821044922 696.0
148.11415100097656 5833.0
149.12181091308594 1051.0
150.12774658203125 12193.0
152.14454650878906 16567.0
155.08749389648438 93.0
157.09149169921875 163.0
158.09742736816406 1388.0
160.11184692382812 1158.0
161.13096618652344 202.0
162.1282958984375 2130.0
163.13766479492188 255.0
164.10702514648438 632.0
166.1248779296875 685.0
172.1179962158203 507.0
174.12696838378906 380.0
176.11219787597656 4883.0
177.11929321289062 298.0
178.1255340576172 3784.0
180.14089965820312 5741.0
188.14437866210938 540.0
190.12452697753906 2812.0
192.1383819580078 258.0
200.13710021972656 460.0
202.1632537841797 377.0
204.13946533203125 1611.0
206.155517578125 275.0
212.15065002441406 93.0
216.16763305664062 153.0
218.15708923339844 2208.0
220.1702423095703 1884.0
230.15316772460938 251.0
231.18475341796875 721.0
232.16732788085938 1279.0
248.4461212158203 1118.0
249.1987762451172 505190.0
250.01690673828125 392.0
250.1877899169922 330.0
250.38760375976562 222.0

Name: L-Sophoridine
Precursor_mz: 271.1770507
Cas: 83148-91-8
Adduct: [M+Na]+
Mz: 271.1780841
Comment: Major
Smiles: O=C1CCC[C@H]2[C@@H]3CCCN4CCC[C@@H](CN12)[C@H]34
Formula: C15H24N2O
Mix: Alkaloids-pos-mix22
Rt: [1.35]
Rt_apex: 1.353235755
Rt_start: 1.294183333
Rt_end: 1.459416667
Ms1_intensity: 8337
N_scnas: 27
Ms1_scan_range: [409, 419, 437]
Reci_snr: 0.006747946
Ms2_scan_idx: 528
Pmz_offset: 0.0010531
Entropy: nan
Num Peaks: 3
79.05229187011719 62.0
95.06775665283203 62.0
271.1785583496094 93.0

Name: Norharmane
Precursor_mz: 169.0749413
Cas: 244-63-3
Adduct: [M+H]+
Mz: 169.0760247
Comment: Major
Smiles: c1ccc2c(c1)[nH]c1cnccc12
Formula: C11H8N2
Mix: Alkaloids-pos-mix22
Rt: [2.008]
Rt_apex: 2.014696589
Rt_start: 1.967633333
Rt_end: 2.427266667
Ms1_intensity: 3256912
N_scnas: 78
Ms1_scan_range: [539, 548, 618]
Reci_snr: 0.000194372
Ms2_scan_idx: 811
Pmz_offset: 0.000109633
Entropy: 0.9905233383178711
Num Peaks: 39
51.0221061706543 431.0
62.01398849487305 270.0
63.02373123168945 2323.0
65.03938293457031 6039.0
75.02239990234375 498.0
77.03649139404297 1009.0
79.04481506347656 183.0
86.01435089111328 272.0
87.02337646484375 600.0
88.03170013427734 1376.0
89.0392074584961 49777.0
90.04712677001953 1117.0
91.05535125732422 1089.0
101.0383071899414 772.0
102.04658508300781 784.0
113.03939056396484 3672.0
114.04576873779297 12978.0
115.05509948730469 585059.0
116.04922485351562 10930.0
117.05370330810547 2108.0
125.03810119628906 154.0
128.0501251220703 1954.0
139.0416259765625 228.0
140.04954528808594 29492.0
141.0577850341797 25536.0
142.06460571289062 23266.0
143.06495666503906 154.0
152.05111694335938 946.0
153.04254150390625 390.0
166.05255126953125 529.0
167.05953979492188 6786.0
167.5550994873047 177.0
168.0677490234375 78002.0
168.56478881835938 1161.0
169.07716369628906 582344.0
169.74752807617188 953.0
169.88833618164062 228.0
170.05482482910156 225.0
185.07711791992188 154.0

Name: N-Benzoyl-(2R,3S)-3-phenylisoserine
Precursor_mz: 286.1076457
Cas: 132201-33-3
Adduct: [M+H]+
Mz: 286.1073844
Comment: Major
Smiles: O=C(N[C@@H](c1ccccc1)[C@@H](O)C(=O)O)c1ccccc1
Formula: C16H15NO4
Mix: Alkaloids-pos-mix22
Rt: [2.92]
Rt_apex: 2.922744548
Rt_start: 2.86795
Rt_end: 3.166766667
Ms1_intensity: 822700
N_scnas: 51
Ms1_scan_range: [691, 701, 743]
Reci_snr: 0.000495466
Ms2_scan_idx: 1362
Pmz_offset: 0.000338265
Entropy: 0.9999998807907104
Num Peaks: 21
44.013362884521484 6897.0
50.012664794921875 553.0
51.023067474365234 3897.0
53.03840637207031 1130.0
65.0393295288086 1241.0
77.03888702392578 150735.0
79.05348205566406 12617.0
91.05393981933594 82477.0
95.04853057861328 1861.0
103.05265045166016 2687.0
104.05086517333984 154.0
105.03374481201172 412702.0
106.06749725341797 1115.0
117.056640625 123.0
118.06392669677734 2250.0
119.04950714111328 4697.0
122.06026458740234 38552.0
136.07720947265625 403.0
147.0451202392578 288.0
210.09104919433594 179.0
240.10060119628906 635.0

Name: N-Benzoyl-(2R,3S)-3-phenylisoserine
Precursor_mz: 308.089058
Cas: 132201-33-3
Adduct: [M+Na]+
Mz: 308.0893287
Comment: Major
Smiles: O=C(N[C@@H](c1ccccc1)[C@@H](O)C(=O)O)c1ccccc1
Formula: C16H15NO4
Mix: Alkaloids-pos-mix22
Rt: [2.92]
Rt_apex: 2.918276451
Rt_start: 2.880416667
Rt_end: 3.024233333
Ms1_intensity: 117033
N_scnas: 23
Ms1_scan_range: [694, 700, 718]
Reci_snr: 0.001089133
Ms2_scan_idx: 1373
Pmz_offset: 0.000847798
Entropy: 0.6887218952178955
Num Peaks: 2
144.04678344726562 31.0
308.0926513671875 154.0

Name: (R)-(+)-Corypalmine
Precursor_mz: 342.169572
Cas: 13063-54-2
Adduct: [M+H]+
Mz: 342.1699847
Comment: Major
Smiles: COc1cc2c(cc1O)CCN1Cc3c(ccc(OC)c3OC)C[C@H]21
Formula: C20H23NO4
Mix: Alkaloids-pos-mix22
Rt: [2.488]
Rt_apex: 2.489117932
Rt_start: 2.27145
Rt_end: 2.72475
Ms1_intensity: 2958615
N_scnas: 72
Ms1_scan_range: [591, 627, 664]
Reci_snr: 0.000170861
Ms2_scan_idx: 1122
Pmz_offset: 0.001929171
Entropy: 0.8815602660179138
Num Peaks: 114
65.04049682617188 559.0
77.03768920898438 643.0
79.05477142333984 901.0
89.03785705566406 315.0
91.0553207397461 17394.0
95.0499496459961 1100.0
103.05697631835938 790.0
104.06237030029297 202.0
105.07119750976562 2068.0
106.06177520751953 1198.0
107.04827880859375 1677.0
108.05831909179688 779.0
109.0628433227539 169.0
115.05205535888672 1085.0
116.04918670654297 431.0
117.05670166015625 421.0
118.0670394897461 1209.0
119.05109405517578 11248.0
120.04692077636719 373.0
121.06851959228516 784.0
122.07427978515625 176.0
123.07953643798828 912.0
130.06521606445312 182.0
131.04815673828125 946.0
132.0605926513672 214.0
133.06398010253906 1016.0
134.06141662597656 16630.0
135.06910705566406 16863.0
136.052734375 3162.0
137.0645751953125 894.0
138.0702667236328 187.0
143.0514678955078 1355.0
146.06492614746094 831.0
147.0707244873047 758.0
148.0782470703125 478.0
149.0601043701172 1034.0
150.0692596435547 7268.0
151.078369140625 38712.0
158.06387329101562 466.0
159.0658416748047 225.0
160.07630920410156 600.0
161.0489959716797 1708.0
162.05679321289062 1624.0
163.06414794921875 222791.0
164.08721923828125 652.0
165.0918426513672 8140.0
174.09915161132812 279.0
175.0782012939453 1202.0
176.0730438232422 9702.0
177.0781707763672 712.0
178.08990478515625 733548.0
179.09326171875 496.0
189.07907104492188 371.0
190.08384704589844 2013.0
191.10098266601562 3250.0
192.10333251953125 1678.0
195.08885192871094 208.0
203.0921173095703 215.0
204.10133361816406 1003.0
207.0813751220703 355.0
218.0762176513672 218.0
219.08456420898438 435.0
221.1040496826172 356.0
222.104736328125 333.0
223.0783233642578 516.0
231.08656311035156 177.0
233.10052490234375 235.0
234.09788513183594 420.0
235.08016967773438 526.0
237.09413146972656 294.0
238.093505859375 213.0
239.11233520507812 153.0
247.0787353515625 275.0
248.0790252685547 299.0
249.09683227539062 666.0
250.10562133789062 539.0
251.1031036376953 1020.0
252.10926818847656 244.0
253.13082885742188 320.0
261.11688232421875 254.0
262.0974426269531 267.0
263.100341796875 296.0
264.1005859375 196.0
265.1118469238281 829.0
266.12506103515625 1227.0
267.1126708984375 826.0
268.1021423339844 456.0
278.0925598144531 277.0
279.1044616699219 1676.0
280.1369934082031 792.0
281.1173095703125 1288.0
282.1158447265625 460.0
283.12322998046875 723.0
284.1418762207031 568.0
292.1313781738281 621.0
293.1204528808594 1270.0
294.1231994628906 2747.0
295.10357666015625 1240.0
296.1314392089844 1169.0
297.1369323730469 458.0
298.1465148925781 1206.0
308.13470458984375 3233.0
309.1455078125 443.0
310.15057373046875 997.0
311.12261962890625 490.0
312.13092041015625 1884.0
313.1532287597656 518.0
324.16790771484375 191.0
325.146484375 826.0
326.1442565917969 7465.0
327.1461181640625 3027.0
340.1624450683594 255.0
341.1311340332031 484.0
342.1764831542969 171075.0

Name: Homoharringtonine
Precursor_mz: 546.2705636
Cas: 26833-87-4
Adduct: [M+H]+
Mz: 546.2697583
Comment: Major
Smiles: COC(=O)C[C@](O)(CCCC(C)(C)O)C(=O)O[C@@H]1C(OC)=C[C@]23CCCN2CCc2cc4c(cc2[C@H]13)OCO4
Formula: C29H39NO9
Mix: Alkaloids-pos-mix22
Rt: [2.49]
Rt_apex: 2.490389084
Rt_start: 2.433766667
Rt_end: 3.601133333
Ms1_intensity: 8183158
N_scnas: 204
Ms1_scan_range: [619, 628, 824]
Reci_snr: 2.43e-05
Ms2_scan_idx: 1153
Pmz_offset: 0.002030705
Entropy: 0.9931280612945557
Num Peaks: 55
107.08601379394531 567.0
109.06575012207031 577.0
120.08534240722656 215.0
123.0763931274414 372.0
126.09477996826172 505.0
149.056640625 250.0
150.09156799316406 3490.0
159.04103088378906 195.0
173.063720703125 211.0
176.0692901611328 1203.0
190.0838165283203 183.0
191.0931854248047 171.0
195.07705688476562 242.0
200.06356811523438 201.0
208.1105194091797 345.0
211.068603515625 303.0
212.06881713867188 195.0
214.08657836914062 214.0
215.0692138671875 1100.0
223.0719757080078 773.0
225.0907745361328 324.0
226.08775329589844 2821.0
227.09539794921875 3469.0
228.10316467285156 190.0
229.11317443847656 1301.0
236.10543823242188 956.0
237.09840393066406 350.0
238.08262634277344 341.0
239.1014404296875 260.0
240.10067749023438 2125.0
241.08238220214844 196.0
242.08139038085938 796.0
249.08790588378906 260.0
250.09890747070312 266.0
251.1052703857422 3600.0
252.1002960205078 218.0
253.10398864746094 1423.0
254.120849609375 391.0
255.0994110107422 850.0
264.102783203125 179.0
266.1181335449219 8677.0
267.1286926269531 2998.0
268.11126708984375 904.0
269.1209716796875 975.0
270.1141357421875 1237.0
281.1195983886719 1773.0
282.111083984375 399.0
283.1208190917969 1468.0
284.1300048828125 3690.0
296.1265563964844 483.0
297.2287902832031 393.0
298.1488952636719 73425.0
316.1578063964844 2807.0
472.239013671875 194.0
546.2734985351562 52454.0

Name: Homoharringtonine
Precursor_mz: 568.2494937
Cas: 26833-87-4
Adduct: [M+Na]+
Mz: 568.2517025
Comment: Major
Smiles: COC(=O)C[C@](O)(CCCC(C)(C)O)C(=O)O[C@@H]1C(OC)=C[C@]23CCCN2CCc2cc4c(cc2[C@H]13)OCO4
Formula: C29H39NO9
Mix: Alkaloids-pos-mix22
Rt: [2.49]
Rt_apex: 2.493913061
Rt_start: 2.453266667
Rt_end: 2.63825
Ms1_intensity: 41269
N_scnas: 27
Ms1_scan_range: [622, 628, 650]
Reci_snr: 0.005047
Ms2_scan_idx: 1126
Pmz_offset: 0.001638553
Entropy: 1.0
Num Peaks: 15
120.08229064941406 429.0
126.09165954589844 540.0
144.08053588867188 275.0
150.0915985107422 2823.0
173.0655975341797 215.0
212.1383514404297 154.0
214.0866241455078 154.0
226.085693359375 180.0
227.09121704101562 588.0
266.1181945800781 2302.0
271.123046875 92.0
297.23370361328125 92.0
298.1465148925781 15021.0
355.2077941894531 918.0
568.2498168945312 1776.0

Name: Quinine dihydrochloride
Precursor_mz: 325.1917493
Cas: 60-93-5
Adduct: [M+H]+
Mz: 325.1910545
Comment: Major
Smiles: C=C[C@H]1C[N@@]2CC[C@H]1C[C@H]2[C@H](O)c1ccnc2ccc(OC)cc12
Formula: C20H24N2O2
Mix: Alkaloids-pos-mix22
Rt: [2.073]
Rt_apex: 2.068220522
Rt_start: 2.035133333
Rt_end: 2.414266667
Ms1_intensity: 1292199
N_scnas: 64
Ms1_scan_range: [551, 556, 616]
Reci_snr: 0.000882285
Ms2_scan_idx: 863
Pmz_offset: 0.00200169
Entropy: 0.9961115717887878
Num Peaks: 167
41.03778076171875 2151.0
42.03263854980469 828.0
44.04878234863281 3135.0
53.03844451904297 1638.0
55.053245544433594 2032.0
56.0500373840332 1270.0
58.0661735534668 203.0
65.037109375 606.0
66.04598236083984 357.0
67.05227661132812 3405.0
68.04997253417969 1027.0
69.05736541748047 548.0
70.06393432617188 665.0
77.0389404296875 3082.0
79.0547866821289 17144.0
80.0486068725586 4564.0
81.07012176513672 16582.0
82.06378936767578 5567.0
83.07373046875 201.0
84.07827758789062 364.0
89.03389739990234 209.0
91.05266571044922 2743.0
93.06697845458984 1320.0
94.06607055664062 2539.0
95.07049560546875 2023.0
96.08024597167969 1743.0
102.04373168945312 201.0
103.05415344238281 200.0
105.06977844238281 1721.0
106.06468200683594 2045.0
107.08460235595703 570.0
108.0802230834961 5340.0
109.08631134033203 207.0
110.09558868408203 3284.0
115.05207824707031 1593.0
116.05072021484375 302.0
117.05672454833984 6155.0
118.06401062011719 459.0
119.07408905029297 308.0
120.07923889160156 1057.0
121.08707427978516 347.0
122.09601593017578 1898.0
124.1092529296875 1387.0
125.08045196533203 193.0
129.0541229248047 577.0
130.06204223632812 814.0
131.0706787109375 1274.0
132.07997131347656 350.0
134.09556579589844 2527.0
135.10501098632812 595.0
136.1100616455078 2639.0
138.1280059814453 1256.0
140.04454040527344 179.0
141.05609130859375 614.0
142.06459045410156 939.0
143.07164001464844 3003.0
144.08056640625 875.0
145.05416870117188 3756.0
146.05816650390625 630.0
148.11244201660156 295.0
154.0633087158203 2692.0
155.07176208496094 2886.0
156.0817413330078 887.0
157.04928588867188 579.0
158.0603790283203 3337.0
159.0658721923828 1614.0
160.0763397216797 41518.0
162.0907745361328 1365.0
164.10342407226562 206.0
166.12306213378906 4297.0
167.0722198486328 2678.0
168.07318115234375 703.0
169.0534210205078 2389.0
170.060302734375 1856.0
171.07015991210938 1330.0
172.07749938964844 20609.0
173.08409118652344 5094.0
174.0899200439453 2812.0
176.07308959960938 232.0
179.0745086669922 193.0
180.0843963623047 810.0
181.0895538330078 963.0
182.05775451660156 1109.0
183.0703125 2213.0
184.07614135742188 13900.0
185.08473205566406 888.0
186.09225463867188 11391.0
187.09483337402344 282.0
188.07122802734375 1837.0
189.08103942871094 3569.0
190.08389282226562 181.0
191.07968139648438 188.0
192.07809448242188 525.0
193.09274291992188 461.0
194.09246826171875 392.0
195.06341552734375 688.0
196.07215881347656 1795.0
197.08546447753906 1859.0
198.0915069580078 7386.0
199.08824157714844 1367.0
200.07159423828125 878.0
202.0874481201172 1641.0
204.07931518554688 580.0
205.0849609375 440.0
206.0970916748047 572.0
207.09152221679688 541.0
208.08428955078125 626.0
209.08755493164062 486.0
210.09323120117188 3558.0
211.09112548828125 1592.0
212.10772705078125 1243.0
213.10629272460938 786.0
214.086669921875 1312.0
216.1036834716797 202.0
218.09490966796875 444.0
219.10122680664062 432.0
220.0765380859375 419.0
221.11036682128906 570.0
222.09222412109375 686.0
223.09722900390625 593.0
224.10659790039062 2401.0
225.10350036621094 916.0
226.12161254882812 1966.0
227.11453247070312 2243.0
230.10633850097656 401.0
232.1117401123047 279.0
233.11985778808594 330.0
234.09149169921875 654.0
235.0888214111328 739.0
236.10768127441406 1582.0
237.10714721679688 1019.0
238.11737060546875 1163.0
239.1145477294922 698.0
240.13990783691406 355.0
247.12069702148438 214.0
248.1055908203125 642.0
249.11016845703125 684.0
250.12120056152344 1499.0
251.12094116210938 5056.0
252.12936401367188 2184.0
253.13534545898438 6819.0
254.15675354003906 497.0
260.1133117675781 171.0
262.12249755859375 491.0
263.13226318359375 489.0
264.13482666015625 3158.0
265.1324768066406 1291.0
266.152587890625 683.0
268.1711120605469 230.0
275.1493835449219 211.0
276.1512756347656 440.0
277.1339416503906 629.0
278.1557922363281 1506.0
279.15374755859375 3363.0
280.1652526855469 196.0
281.155029296875 266.0
282.1512756347656 1107.0
290.1511535644531 254.0
291.1512451171875 199.0
292.1626281738281 197.0
295.1807861328125 173.0
296.1653137207031 660.0
297.19989013671875 987.0
305.1685791015625 207.0
307.1846008300781 20671.0
324.19073486328125 197.0
325.19464111328125 101504.0

Name: Rauwolscine hydrochloride
Precursor_mz: 355.203702
Cas: 6211-32-1
Adduct: [M+H]+
Mz: 355.2016192
Comment: Major
Smiles: COC(=O)[C@@H]1[C@@H](O)CC[C@@H]2CN3CCc4c([nH]c5ccccc45)[C@@H]3C[C@@H]21
Formula: C21H26N2O3
Mix: Alkaloids-pos-mix22
Rt: [2.514]
Rt_apex: 2.511059538
Rt_start: 2.466433333
Rt_end: 2.918066667
Ms1_intensity: 2703530
N_scnas: 75
Ms1_scan_range: [624, 631, 700]
Reci_snr: 0.000102295
Ms2_scan_idx: 1134
Pmz_offset: 0.00284844
Entropy: 0.8840161561965942
Num Peaks: 155
42.03261184692383 435.0
44.049686431884766 2830.0
56.05000305175781 1481.0
65.03820037841797 165.0
77.03765869140625 713.0
79.05473327636719 1620.0
80.0485610961914 1437.0
81.07007598876953 407.0
82.06246185302734 253.0
83.04682159423828 197.0
89.03913879394531 1451.0
90.04705047607422 665.0
91.05528259277344 9413.0
92.0489273071289 573.0
93.07098388671875 791.0
94.06465148925781 4084.0
95.0704345703125 209.0
96.04442596435547 429.0
101.03681945800781 207.0
102.04650115966797 404.0
103.05551147460938 1417.0
104.05087280273438 289.0
105.07115173339844 2414.0
106.0675048828125 7660.0
107.08599090576172 1373.0
108.08453369140625 334.0
109.06425476074219 240.0
110.09257507324219 340.0
113.05870056152344 686.0
115.05501556396484 20266.0
116.05972290039062 1873.0
117.0703125 49913.0
118.0639419555664 1685.0
119.08473205566406 667.0
120.07916259765625 1155.0
121.06537628173828 184.0
122.06647491455078 195.0
126.04905700683594 322.0
127.05469512939453 13467.0
128.05162048339844 4100.0
129.06838989257812 1058.0
130.06515502929688 7342.0
131.0738067626953 837.0
132.08473205566406 2447.0
133.0655517578125 666.0
134.09710693359375 23381.0
135.08209228515625 680.0
136.10833740234375 955.0
137.0579376220703 312.0
138.09164428710938 897.0
141.06100463867188 252.0
142.0644989013672 2243.0
143.0749053955078 39542.0
144.08216857910156 965278.0
145.064208984375 1554.0
146.0970916748047 1418.0
147.1046905517578 210.0
148.1140594482422 343.0
149.05831909179688 264.0
150.08982849121094 402.0
151.08175659179688 339.0
152.1029052734375 829.0
154.07191467285156 263.0
155.06292724609375 2370.0
156.08164978027344 1525.0
157.08787536621094 1060.0
158.0973358154297 4972.0
159.08702087402344 195.0
160.0797882080078 504.0
162.0924530029297 11387.0
163.0730438232422 774.0
164.10511779785156 331.0
166.0867919921875 302.0
167.07574462890625 640.0
168.08216857910156 1524.0
169.0916290283203 532.0
170.09861755371094 1210.0
174.0916748046875 405.0
175.07814025878906 175.0
177.09864807128906 756.0
178.08233642578125 438.0
180.10499572753906 6585.0
181.09133911132812 697.0
182.09552001953125 1321.0
183.10057067871094 238.0
184.1083984375 228.0
185.10943603515625 254.0
186.120849609375 244.0
192.10519409179688 2254.0
193.09066772460938 450.0
194.12167358398438 13567.0
195.10836791992188 623.0
196.111328125 420.0
198.12298583984375 450.0
204.085205078125 674.0
205.08885192871094 598.0
206.11509704589844 1726.0
207.1136016845703 379.0
208.11654663085938 1127.0
209.12191772460938 677.0
210.11343383789062 854.0
212.1321258544922 147978.0
217.0990447998047 540.0
218.0989227294922 867.0
219.10939025878906 606.0
220.11387634277344 1417.0
221.1185760498047 625.0
222.13182067871094 469.0
224.1316680908203 20859.0
226.1531219482422 823.0
230.09555053710938 625.0
231.1056671142578 838.0
232.12014770507812 843.0
233.1197052001953 757.0
234.13214111328125 1150.0
236.1485137939453 221.0
237.14373779296875 181.0
238.16270446777344 189.0
243.10208129882812 204.0
244.118408203125 642.0
245.11927795410156 389.0
246.12660217285156 1361.0
248.14743041992188 3151.0
250.12770080566406 226.0
252.13812255859375 223.0
258.1365051269531 213.0
260.1470947265625 1973.0
262.1246032714844 358.0
264.13922119140625 321.0
266.1570129394531 1010.0
274.12823486328125 433.0
276.14410400390625 1336.0
277.1734924316406 193.0
278.1532897949219 529.0
279.1488952636719 203.0
280.13922119140625 553.0
288.14410400390625 777.0
292.14324951171875 420.0
294.15435791015625 3726.0
295.1926574707031 255.0
305.17327880859375 334.0
306.15716552734375 1365.0
308.1665954589844 1482.0
311.1695251464844 215.0
312.1704406738281 702.0
320.1728210449219 892.0
323.18060302734375 343.0
324.1652526855469 528.0
326.1795959472656 2979.0
337.1948547363281 808.0
338.18511962890625 2362.0
354.12408447265625 1001.0
355.2076416015625 320621.0
356.42535400390625 170.0
356.62408447265625 173.0

Name: Ajmaline
Precursor_mz: 327.2067436
Cas: 12/7/60
Adduct: [M+H]+
Mz: 327.2067045
Comment: Major
Smiles: CC[C@H]1[C@@H]2C[C@H]3[C@@H]4N(C)c5ccccc5[C@]45C[C@@H](C2[C@H]5O)N3[C@@H]1O
Formula: C20H26N2O2
Mix: Alkaloids-pos-mix22
Rt: [2.421]
Rt_apex: 2.416117068
Rt_start: 2.335933333
Rt_end: 2.505766667
Ms1_intensity: 3328627
N_scnas: 25
Ms1_scan_range: [604, 616, 630]
Reci_snr: 0.000430795
Ms2_scan_idx: 1048
Pmz_offset: 0.002696958
Entropy: 0.9545756578445435
Num Peaks: 206
41.03947830200195 837.0
43.018131256103516 591.0
44.04960632324219 512.0
53.039337158203125 549.0
55.05519104003906 1799.0
56.052001953125 3083.0
57.03231430053711 1016.0
58.06496047973633 196.0
65.0380859375 346.0
67.05326080322266 1349.0
68.0498046875 803.0
69.03270721435547 800.0
70.06494140625 431.0
71.04922485351562 313.0
72.08206939697266 1141.0
77.03998565673828 2309.0
78.03598022460938 247.0
79.0545883178711 3528.0
80.04966735839844 13224.0
81.06866455078125 4111.0
82.06358337402344 4893.0
83.0479507446289 864.0
84.04590606689453 1727.0
89.03897857666016 554.0
90.04422760009766 221.0
91.05511474609375 7636.0
92.05145263671875 480.0
93.0667495727539 5013.0
94.0644760131836 2742.0
95.08667755126953 1651.0
96.082763671875 1384.0
97.06468200683594 640.0
98.09745788574219 1617.0
100.07829284667969 469.0
102.04631805419922 186.0
103.0553207397461 1076.0
104.05211639404297 346.0
105.06952667236328 2829.0
106.06442260742188 4161.0
107.08434295654297 2850.0
108.08141326904297 11410.0
109.06552124023438 3299.0
110.09679412841797 19495.0
111.07965850830078 2375.0
112.10997772216797 297.0
115.05480194091797 3092.0
116.06101989746094 618.0
117.05795288085938 2866.0
118.06524658203125 5562.0
119.0829849243164 1743.0
120.08202362060547 6767.0
121.09603881835938 507.0
122.09571075439453 2695.0
123.080810546875 634.0
124.11051177978516 474.0
125.09584045410156 415.0
126.08979797363281 1775.0
127.05604553222656 667.0
128.059326171875 1439.0
129.07293701171875 1273.0
130.0665283203125 12438.0
131.07518005371094 8657.0
132.08126831054688 9648.0
133.09768676757812 1736.0
134.10011291503906 3084.0
135.08021545410156 547.0
136.07534790039062 4020.0
137.09384155273438 588.0
138.0913848876953 15611.0
139.07435607910156 268.0
140.10565185546875 326.0
141.07408142089844 667.0
142.0675811767578 1647.0
143.07464599609375 10699.0
144.08189392089844 150059.0
145.08761596679688 5476.0
146.09512329101562 11042.0
147.0754852294922 452.0
148.07962036132812 853.0
150.0912628173828 453.0
152.10955810546875 950.0
153.0681915283203 457.0
154.06292724609375 1067.0
155.06788635253906 894.0
156.07960510253906 3032.0
157.08934020996094 18410.0
158.0970458984375 131182.0
159.092041015625 1056.0
160.07594299316406 2058.0
161.09317016601562 208.0
162.0903778076172 3380.0
164.10841369628906 2684.0
165.07342529296875 620.0
166.072021484375 608.0
167.07362365722656 13233.0
168.0818634033203 10802.0
169.08949279785156 8635.0
170.0964813232422 18572.0
171.102783203125 2887.0
172.1046905517578 7466.0
173.08551025390625 3541.0
174.0950469970703 8078.0
176.10989379882812 665.0
178.12509155273438 1006.0
179.0778350830078 848.0
180.08206176757812 4973.0
181.089111328125 10802.0
182.09896850585938 47996.0
183.1078338623047 5604.0
184.1156768798828 23864.0
185.10910034179688 5459.0
186.091796875 2240.0
187.11932373046875 287.0
188.10926818847656 673.0
191.07728576660156 367.0
192.07955932617188 459.0
193.09226989746094 3270.0
194.0998077392578 35890.0
195.10409545898438 10151.0
196.11489868164062 12259.0
197.09483337402344 2075.0
198.1206512451172 2299.0
199.12339782714844 1346.0
200.10682678222656 2191.0
201.13845825195312 216.0
202.12884521484375 373.0
204.08082580566406 1876.0
205.09048461914062 4167.0
206.10061645507812 2269.0
207.10311889648438 3232.0
208.11212158203125 13391.0
209.1174774169922 3690.0
210.12728881835938 43108.0
211.12118530273438 2347.0
212.11129760742188 18239.0
213.11805725097656 387.0
214.12310791015625 392.0
217.08624267578125 539.0
218.09437561035156 1633.0
219.10067749023438 1585.0
220.11138916015625 20105.0
221.1181640625 3099.0
222.1293182373047 7607.0
223.13230895996094 3023.0
224.11444091796875 1637.0
225.1534881591797 448.0
226.1231689453125 6772.0
227.15628051757812 264.0
228.13873291015625 1090.0
230.09938049316406 206.0
231.10525512695312 910.0
232.11331176757812 1148.0
233.114990234375 1237.0
234.12527465820312 1719.0
235.12698364257812 8856.0
236.14376831054688 4452.0
237.14112854003906 14218.0
238.13194274902344 18057.0
239.15953063964844 20237.0
240.14149475097656 1257.0
244.11138916015625 787.0
245.11883544921875 1504.0
246.12835693359375 1041.0
247.12229919433594 1209.0
248.14920043945312 2397.0
249.1427764892578 669.0
250.16497802734375 918.0
251.15591430664062 658.0
252.1710968017578 918.0
253.13919067382812 325.0
254.1583709716797 1833.0
255.15267944335938 5005.0
256.1759033203125 398.0
259.1403503417969 848.0
260.1534118652344 200.0
261.1412353515625 1469.0
262.1559143066406 2153.0
263.1566467285156 2314.0
264.1798095703125 3696.0
265.1729431152344 1262.0
266.1588134765625 2817.0
272.16790771484375 241.0
274.157958984375 2563.0
276.1669006347656 438.0
277.1542663574219 212.0
279.188232421875 1092.0
280.1716003417969 2348.0
281.2037353515625 936.0
282.1906433105469 1988.0
284.16015625 899.0
289.1688232421875 357.0
291.1864318847656 7067.0
292.1690979003906 4206.0
294.16827392578125 198.0
297.21124267578125 270.0
298.18218994140625 265.0
299.22027587890625 153.0
307.181396484375 567.0
309.2015686035156 14479.0
310.1844787597656 4067.0
325.2039489746094 302.0
326.21197509765625 2832.0
327.21136474609375 724989.0
328.26824951171875 1746.0
328.5708923339844 478.0
328.6752014160156 250.0

Name: Dihydrolycorine
Precursor_mz: 290.1366328
Cas: 6271-21-2
Adduct: [M+H]+
Mz: 290.1386845
Comment: Major
Smiles: O[C@H]1C[C@H]2CCN3Cc4cc5c(cc4[C@H]([C@@H]1O)[C@@H]23)OCO5
Formula: C16H19NO4
Mix: Alkaloids-pos-mix23
Rt: [2.915]
Rt_apex: 1.352637499
Rt_start: 1.301766667
Rt_end: 1.39375
Ms1_intensity: 6029
N_scnas: 20
Ms1_scan_range: [423, 436, 444]
Reci_snr: 0.033078866
Ms2_scan_idx: 525
Pmz_offset: 0.00079706
Entropy: 1.0
Num Peaks: 11
68.0475082397461 106.0
82.06487274169922 80.0
112.07284545898438 115.0
136.07534790039062 58.0
149.05633544921875 40.0
179.0853271484375 31.0
188.06883239746094 31.0
214.0758514404297 48.0
254.12030029296875 47.0
272.1261901855469 162.0
290.1408386230469 551.0

Name: Huperzine B
Precursor_mz: 257.1661725
Cas: 103548-82-9
Adduct: [M+H]+
Mz: 257.1648397
Comment: Major
Smiles: CC1=C[C@H]2Cc3[nH]c(=O)ccc3[C@]3(C1)NCCC[C@H]23
Formula: C16H20N2O
Mix: Alkaloids-pos-mix23
Rt: [1.559]
Rt_apex: 1.55883278
Rt_start: 1.51725
Rt_end: 1.7305
Ms1_intensity: 1894965
N_scnas: 43
Ms1_scan_range: [465, 472, 509]
Reci_snr: 0.000944539
Ms2_scan_idx: 640
Pmz_offset: 0.002750107
Entropy: 1.000000238418579
Num Peaks: 117
41.0395393371582 581.0
43.054100036621094 203.0
53.040435791015625 258.0
55.05735397338867 854.0
56.05208206176758 1237.0
65.039306640625 191.0
67.05449676513672 983.0
70.06620788574219 792.0
77.03884887695312 2332.0
79.0546875 2731.0
80.051025390625 1679.0
81.07255554199219 2079.0
89.0390853881836 237.0
91.05522918701172 6424.0
92.05021667480469 250.0
93.0709228515625 3180.0
94.06459045410156 360.0
95.0867919921875 1367.0
101.03816223144531 272.0
103.05401611328125 2195.0
104.0508041381836 575.0
105.07252502441406 1670.0
106.06454467773438 1242.0
107.08737182617188 2830.0
108.0465316772461 1390.0
109.05245971679688 406.0
110.06010437011719 528.0
115.054931640625 3045.0
116.04905700683594 1974.0
117.05504608154297 1253.0
118.06385803222656 1480.0
119.09077453613281 620.0
120.0821533203125 7921.0
122.06018829345703 1044.0
127.05301666259766 1877.0
128.05152893066406 4292.0
129.07147216796875 2131.0
130.06666564941406 5067.0
131.0785369873047 2478.0
132.0443115234375 940.0
133.05250549316406 896.0
134.06288146972656 4824.0
135.07057189941406 350.0
139.0546417236328 784.0
140.0526580810547 1773.0
141.06590270996094 1214.0
142.06773376464844 3734.0
143.0865478515625 1363.0
144.08541870117188 1217.0
145.0471954345703 604.0
146.06475830078125 9096.0
147.067138671875 527.0
148.0780792236328 4049.0
151.0540313720703 657.0
152.06298828125 3140.0
153.07008361816406 2417.0
154.0665740966797 5673.0
155.0732879638672 2281.0
156.08152770996094 2771.0
157.09654235839844 718.0
158.06192016601562 13284.0
159.06565856933594 672.0
160.07611083984375 7713.0
161.08621215820312 201.0
162.09054565429688 286.0
164.0492706298828 219.0
165.0627899169922 2144.0
166.06495666503906 6116.0
167.08648681640625 1305.0
168.08203125 2595.0
169.0878448486328 1310.0
170.09664916992188 2722.0
171.06991577148438 447.0
172.07725524902344 6317.0
173.07461547851562 1322.0
174.0933837890625 1825.0
177.10409545898438 1431.0
178.07095336914062 1388.0
179.0780029296875 1014.0
180.08224487304688 10178.0
181.0911865234375 776.0
182.06317138671875 2283.0
183.07192993164062 6703.0
184.07968139648438 14570.0
185.08445739746094 1499.0
186.09197998046875 3668.0
187.09263610839844 277.0
188.1094512939453 569.0
189.1039276123047 214.0
191.0774688720703 223.0
192.07974243164062 983.0
193.08660888671875 373.0
194.09413146972656 2336.0
195.12193298339844 311.0
196.07579040527344 3942.0
197.08517456054688 5808.0
198.0951690673828 26469.0
199.101806640625 4097.0
200.11495971679688 965.0
201.1068115234375 1153.0
202.12904357910156 1910.0
205.10072326660156 285.0
209.07911682128906 176.0
210.09088134765625 2371.0
211.10508728027344 1143.0
212.11558532714844 12969.0
213.11416625976562 298.0
214.12330627441406 6987.0
222.12953186035156 1076.0
223.11366271972656 261.0
225.11158752441406 1206.0
228.1431884765625 1796.0
238.12567138671875 679.0
239.15542602539062 472.0
240.13955688476562 41476.0
256.38507080078125 179.0
257.1698913574219 55809.0

Name: Huperzine B
Precursor_mz: 279.1456056
Cas: 103548-82-9
Adduct: [M+Na]+
Mz: 279.146784
Comment: Major
Smiles: CC1=C[C@H]2Cc3[nH]c(=O)ccc3[C@]3(C1)NCCC[C@H]23
Formula: C16H20N2O
Mix: Alkaloids-pos-mix23
Rt: [1.559]
Rt_apex: 1.560237167
Rt_start: 1.53075
Rt_end: 1.560233333
Ms1_intensity: 18412
N_scnas: 4
Ms1_scan_range: [467, 472, 472]
Reci_snr: 0.069955234
Ms2_scan_idx: 624
Pmz_offset: 0.000164417
Entropy: 0.9999999403953552
Num Peaks: 3
149.02249145507812 216.0
201.04945373535156 312.0
279.1491394042969 166.0

Name: N-Methylnuciferine
Precursor_mz: 310.180331
Cas: 754919-24-9
Adduct: [M]+
Mz: 310.1801554
Comment: Major
Smiles: COc1cc2c3c(c1OC)-c1ccccc1C[C@H]3[N+](C)(C)CC2
Formula: C20H24NO2+
Mix: Alkaloids-pos-mix23
Rt: [2.894]
Rt_apex: 2.891248217
Rt_start: 2.85165
Rt_end: 3.367116667
Ms1_intensity: 5397348
N_scnas: 79
Ms1_scan_range: [720, 726, 800]
Reci_snr: 3.98e-05
Ms2_scan_idx: 1292
Pmz_offset: 0.00071254
Entropy: 0.9987724423408508
Num Peaks: 90
42.033512115478516 8963.0
43.04121398925781 3399.0
44.05060577392578 1122.0
55.01883316040039 661.0
56.04787826538086 1254.0
58.06504440307617 635235.0
71.0718002319336 189.0
72.08097839355469 990.0
75.041748046875 252.0
85.0266342163086 293.0
115.05493927001953 415.0
127.05302429199219 340.0
128.06106567382812 1800.0
139.05299377441406 242.0
141.07090759277344 522.0
150.04844665527344 255.0
151.0574951171875 465.0
152.06126403808594 1514.0
153.0718231201172 566.0
155.0855255126953 286.0
163.05499267578125 281.0
164.0636444091797 487.0
165.07000732421875 9735.0
166.07400512695312 855.0
167.08648681640625 1133.0
176.0635223388672 1436.0
177.06861877441406 4160.0
178.07846069335938 44317.0
179.08740234375 96570.0
180.09544372558594 567.0
181.0685272216797 1235.0
187.05426025390625 342.0
188.065185546875 457.0
189.06919860839844 39565.0
190.07781982421875 29716.0
191.08717346191406 121745.0
192.09532165527344 4622.0
193.1002655029297 6266.0
194.10586547851562 1819.0
195.08078002929688 2115.0
196.095458984375 233.0
200.06137084960938 356.0
201.0709991455078 4219.0
202.07717895507812 20081.0
203.0858612060547 66263.0
204.0930633544922 7812.0
205.09671020507812 15176.0
206.0706024169922 5216.0
207.08111572265625 102997.0
208.08802795410156 3577.0
209.09536743164062 1726.0
213.0670623779297 607.0
214.07814025878906 949.0
215.08750915527344 5272.0
216.08685302734375 190.0
217.06578063964844 24798.0
218.07386779785156 47617.0
219.08221435546875 134822.0
220.09078979492188 5813.0
221.08291625976562 37094.0
222.09817504882812 9867.0
223.07803344726562 1989.0
224.08316040039062 1143.0
229.0683135986328 317.0
231.08200073242188 7894.0
232.0857391357422 3505.0
233.09808349609375 43107.0
234.10618591308594 423718.0
235.07772827148438 498792.0
236.0857696533203 35375.0
237.0938262939453 12098.0
238.1018524169922 5184.0
239.1055145263672 3779.0
247.12033081054688 299.0
248.12069702148438 1753.0
249.09207153320312 25966.0
250.10086059570312 591755.0
251.11167907714844 1444.0
252.1178436279297 6366.0
253.12380981445312 297.0
263.1045227050781 171.0
264.1207580566406 850.0
265.1252136230469 735958.0
266.13616943359375 705.0
267.1375732421875 12964.0
279.1439514160156 2430.0
281.1569519042969 219.0
295.1610412597656 250.0
309.22900390625 1071.0
310.18231201171875 290897.0

Name: 9-Methoxycanthin-6-one
Precursor_mz: 251.0810177
Cas: 74991-91-6
Adduct: [M+H]+
Mz: 251.081504
Comment: Major
Smiles: COc1ccc2c3ccnc4ccc(=O)n(c2c1)c43
Formula: C15H10N2O2
Mix: Alkaloids-pos-mix23
Rt: [3.432]
Rt_apex: 3.432192242
Rt_start: 3.374283333
Rt_end: 3.775083333
Ms1_intensity: 2065032
N_scnas: 61
Ms1_scan_range: [801, 809, 863]
Reci_snr: 0.000718501
Ms2_scan_idx: 1636
Pmz_offset: 0.000501391
Entropy: 0.9693907499313354
Num Peaks: 37
98.0099868774414 251.0
99.02262878417969 335.0
100.03204345703125 331.0
102.0364761352539 188.0
103.0411605834961 532.0
125.0378646850586 1163.0
126.04576873779297 2579.0
127.04190063476562 5452.0
128.04989624023438 771.0
129.0586700439453 361.0
140.05426025390625 232.0
152.05255126953125 4329.0
153.05613708496094 8994.0
154.05606079101562 11554.0
165.0410919189453 244.0
170.0636444091797 262.0
178.0521697998047 314.0
179.0629119873047 86419.0
180.0708770751953 431150.0
181.08168029785156 286.0
182.05931091308594 353.0
191.0657501220703 301.0
192.07579040527344 415.0
193.0767822265625 266.0
195.09442138671875 219.0
197.0634307861328 189.0
205.0785369873047 191.0
207.05477905273438 4266.0
208.06568908691406 694609.0
219.05511474609375 252.0
221.0723876953125 539.0
222.09181213378906 248.0
223.09262084960938 10322.0
235.053955078125 336.0
236.0619659423828 299906.0
250.31385803222656 561.0
251.0871124267578 234766.0

Name: VASICINE
Precursor_mz: 189.1020434
Cas: 6159-55-3
Adduct: [M+H]+
Mz: 189.1022395
Comment: Major
Smiles: O[C@H]1CCN2Cc3ccccc3N=C12
Formula: C11H12N2O
Mix: Alkaloids-pos-mix23
Rt: [1.397]
Rt_apex: 1.393262257
Rt_start: 1.352616667
Rt_end: 2.092283333
Ms1_intensity: 1834243
N_scnas: 149
Ms1_scan_range: [436, 444, 586]
Reci_snr: 0.000789471
Ms2_scan_idx: 547
Pmz_offset: 0.001231118
Entropy: 0.9994200468063354
Num Peaks: 54
41.03858947753906 1707.0
42.03618240356445 92.0
43.03010559082031 93.0
50.017547607421875 93.0
51.02499008178711 653.0
54.03431701660156 1188.0
57.03337860107422 588.0
63.02468490600586 434.0
65.03921508789062 3266.0
66.03897857666016 93.0
68.0498046875 1086.0
75.0234146118164 177.0
77.03997802734375 4923.0
78.04837036132812 411.0
79.05458068847656 631.0
89.03897094726562 14418.0
90.04688262939453 4002.0
91.05510711669922 54861.0
101.03661346435547 699.0
102.04771423339844 685.0
103.05387878417969 2401.0
104.04923248291016 4089.0
105.05944061279297 325.0
106.06584930419922 5507.0
115.05327606201172 15909.0
116.05192565917969 27254.0
117.0594482421875 28801.0
118.0667495727539 225468.0
126.04407501220703 358.0
127.05443572998047 7152.0
128.04818725585938 4892.0
129.04739379882812 1734.0
130.0648956298828 10083.0
131.05908203125 3791.0
132.06832885742188 348.0
133.0814666748047 231.0
134.0643310546875 187.0
140.0474853515625 453.0
141.05238342285156 317.0
142.064208984375 7193.0
143.07293701171875 52484.0
144.0818634033203 34296.0
145.07235717773438 659.0
146.05946350097656 347.0
153.05599975585938 495.0
154.068115234375 25686.0
155.05909729003906 2191.0
156.0690460205078 3697.0
168.06907653808594 3739.0
169.0784912109375 49613.0
170.08544921875 5561.0
171.0935516357422 192086.0
188.53094482421875 229.0
189.10560607910156 91300.0

Name: Pyrrole-2-carboxylic acid
Precursor_mz: 112.0383388
Cas: 634-97-9
Adduct: [M+H]+
Mz: 112.0393049
Comment: Major
Smiles: O=C(O)c1ccc[nH]1
Formula: C5H5NO2
Mix: Alkaloids-pos-mix23
Rt: [1.5]
Rt_apex: 1.49714948
Rt_start: 1.452583333
Rt_end: 1.560233333
Ms1_intensity: 9505
N_scnas: 18
Ms1_scan_range: [453, 460, 472]
Reci_snr: 0.038865865
Ms2_scan_idx: 600
Pmz_offset: 0.000464489
Entropy: 1.0
Num Peaks: 9
40.0174674987793 123.0
41.03950119018555 659.0
44.99443054199219 62.0
56.04677200317383 46.0
66.0333023071289 666.0
67.04179382324219 77.0
68.0498275756836 533.0
94.02775573730469 600.0
112.03868865966797 31.0

Name: Lumichrome
Precursor_mz: 243.0873992
Cas: 1086-80-2
Adduct: [M+H]+
Mz: 243.087652
Comment: Major
Smiles: Cc1cc2nc3[nH]c(=O)[nH]c(=O)c3nc2cc1C
Formula: C12H10N4O2
Mix: Alkaloids-pos-mix23
Rt: [2.639]
Rt_apex: 2.635640189
Rt_start: 2.596833333
Rt_end: 2.795883333
Ms1_intensity: 738330
N_scnas: 31
Ms1_scan_range: [680, 686, 712]
Reci_snr: 0.00030246
Ms2_scan_idx: 1119
Pmz_offset: 0.001999087
Entropy: 1.0000001192092896
Num Peaks: 34
77.03881072998047 4722.0
89.03639221191406 1340.0
91.05518341064453 6270.0
101.03388214111328 242.0
102.04638671875 801.0
103.05397033691406 26208.0
104.04645538330078 3008.0
105.043701171875 231.0
116.0505142211914 10713.0
117.05802917480469 1489.0
118.06532287597656 10864.0
128.0498809814453 2290.0
129.04112243652344 480.0
130.06500244140625 12771.0
131.0736541748047 379.0
142.05429077148438 680.0
143.06130981445312 2455.0
145.07586669921875 26788.0
153.042236328125 1634.0
155.05747985839844 458.0
156.05690002441406 998.0
157.06304931640625 5637.0
170.07095336914062 29687.0
172.08636474609375 73396.0
173.06900024414062 229.0
182.07066345214844 907.0
197.07916259765625 1317.0
198.0674285888672 77111.0
199.0937957763672 369.0
200.08111572265625 4711.0
216.07643127441406 3025.0
225.07778930664062 652.0
226.06419372558594 849.0
243.088623046875 52372.0

Name: Lumichrome
Precursor_mz: 260.1136782
Cas: 1086-80-2
Adduct: [M+NH4]+
Mz: 260.1142011
Comment: Major
Smiles: Cc1cc2nc3[nH]c(=O)[nH]c(=O)c3nc2cc1C
Formula: C12H10N4O2
Mix: Alkaloids-pos-mix23
Rt: [2.639]
Rt_apex: 2.639142074
Rt_start: 2.6065
Rt_end: 2.687666667
Ms1_intensity: 3323
N_scnas: 11
Ms1_scan_range: [682, 687, 694]
Reci_snr: 0.094161141
Ms2_scan_idx: 1107
Pmz_offset: 0.000643734
Entropy: 1.0000001192092896
Num Peaks: 12
103.05115509033203 299.0
116.0505599975586 92.0
118.06231689453125 123.0
130.06985473632812 190.0
145.07423400878906 256.0
157.0648651123047 123.0
170.07284545898438 258.0
172.08644104003906 802.0
198.06947326660156 1056.0
200.08119201660156 93.0
216.07858276367188 123.0
243.08871459960938 619.0

Name: Neotuberostemonine
Precursor_mz: 376.2497061
Cas: 143120-46-1
Adduct: [M+H]+
Mz: 376.248235
Comment: Major
Smiles: CC[C@@H]1[C@H]2CCCCN3[C@H]([C@@H]4C[C@H](C)C(=O)O4)C[C@@H]([C@@H]4[C@H](C)C(=O)O[C@@H]41)[C@@H]23
Formula: C22H33NO4
Mix: Alkaloids-pos-mix23
Rt: [2.393]
Rt_apex: 2.39592758
Rt_start: 2.332033333
Rt_end: 2.556833333
Ms1_intensity: 431766
N_scnas: 39
Ms1_scan_range: [633, 645, 673]
Reci_snr: 0.000737141
Ms2_scan_idx: 990
Pmz_offset: 0.001328212
Entropy: 1.0
Num Peaks: 22
81.06886291503906 180.0
84.07955932617188 275.0
91.05399322509766 282.0
96.07886505126953 471.0
100.07852935791016 193.0
105.06977081298828 676.0
117.06884765625 397.0
125.05846405029297 177.0
128.06915283203125 614.0
129.07162475585938 225.0
133.0963592529297 629.0
142.08462524414062 512.0
143.0850372314453 278.0
145.10145568847656 538.0
147.11666870117188 725.0
149.09779357910156 182.0
161.13270568847656 227.0
171.11233520507812 380.0
175.1487579345703 242.0
187.15237426757812 192.0
302.2117614746094 2294.0
376.2518005371094 26797.0

Name: Neotuberostemonine
Precursor_mz: 398.229906
Cas: 143120-46-1
Adduct: [M+Na]+
Mz: 398.2301792
Comment: Major
Smiles: CC[C@@H]1[C@H]2CCCCN3[C@H]([C@@H]4C[C@H](C)C(=O)O4)C[C@@H]([C@@H]4[C@H](C)C(=O)O[C@@H]41)[C@@H]23
Formula: C22H33NO4
Mix: Alkaloids-pos-mix23
Rt: [2.393]
Rt_apex: 2.397507209
Rt_start: 2.33735
Rt_end: 2.516666667
Ms1_intensity: 27095
N_scnas: 30
Ms1_scan_range: [635, 645, 666]
Reci_snr: 0.002693125
Ms2_scan_idx: 975
Pmz_offset: 0.001081195
Entropy: 1.000000238418579
Num Peaks: 4
258.2398376464844 62.0
302.21124267578125 93.0
324.20013427734375 62.0
398.2339172363281 1421.0

Name: Tomatine
Precursor_mz: 1034.556202
Cas: 17406-45-0
Adduct: [M+H]+
Mz: 1034.553035
Comment: Major
Smiles: C[C@H]1CC[C@]2(NC1)O[C@H]1C[C@H]3[C@@H]4CC[C@H]5C[C@@H](O[C@@H]6O[C@H](CO)[C@H](O[C@@H]7O[C@H](CO)[C@@H](O)[C@H](O[C@@H]8OC[C@@H](O)[C@H](O)[C@H]8O)[C@H]7O[C@@H]7O[C@H](CO)[C@@H](O)[C@H](O)[C@H]7O)[C@H](O)[C@H]6O)CC[C@]5(C)[C@H]4CC[C@]3(C)[C@H]1[C@@H]2C
Formula: C50H83NO21
Mix: Alkaloids-pos-mix23
Rt: [2.994]
Rt_apex: 2.99303408
Rt_start: 2.894983333
Rt_end: 3.251966667
Ms1_intensity: 503671
N_scnas: 55
Ms1_scan_range: [727, 742, 783]
Reci_snr: 0.000532658
Ms2_scan_idx: 1383
Pmz_offset: 0.002651136
Entropy: 1.0000001192092896
Num Peaks: 19
85.02915954589844 286.0
97.02603149414062 360.0
115.03679656982422 154.0
124.1105728149414 93.0
126.12925720214844 154.0
144.14260864257812 93.0
145.0504913330078 351.0
161.1288604736328 260.0
163.06027221679688 461.0
255.21104431152344 598.0
273.2200927734375 513.0
295.1077880859375 186.0
325.11041259765625 250.0
398.3431091308594 823.0
416.3559265136719 2952.0
435.2704772949219 233.0
578.4098510742188 1058.0
740.461181640625 211.0
872.49560546875 208.0

Name: Picolinamide
Precursor_mz: 123.0543236
Cas: 1452-77-3
Adduct: [M+H]+
Mz: 123.0552893
Comment: Major
Smiles: NC(=O)c1ccccn1
Formula: C6H6N2O
Mix: Alkaloids-pos-mix24
Rt: [1.341]
Rt_apex: 1.33914835
Rt_start: 1.3024
Rt_end: 1.473216667
Ms1_intensity: 89317
N_scnas: 42
Ms1_scan_range: [394, 400, 437]
Reci_snr: 0.000873949
Ms2_scan_idx: 528
Pmz_offset: 5.6e-05
Entropy: 1.0000001192092896
Num Peaks: 12
44.01324462890625 102.0
49.0063362121582 185.0
50.01450729370117 4426.0
51.02292251586914 27671.0
52.01811981201172 813.0
53.039276123046875 77.0
75.00994873046875 46.0
78.03587341308594 57960.0
96.04548645019531 2069.0
106.02957153320312 974.0
123.05570220947266 97.0
124.03997039794922 155.0

Name: Boldine
Precursor_mz: 328.1540307
Cas: 476-70-0
Adduct: [M+H]+
Mz: 328.1543346
Comment: Major
Smiles: COc1cc2c(cc1O)C[C@H]1c3c(cc(O)c(OC)c3-2)CCN1C
Formula: C19H21NO4
Mix: Alkaloids-pos-mix24
Rt: [2.005]
Rt_apex: 1.999891617
Rt_start: 1.906083333
Rt_end: 2.14965
Ms1_intensity: 2163120
N_scnas: 40
Ms1_scan_range: [532, 549, 573]
Reci_snr: 0.000170812
Ms2_scan_idx: 839
Pmz_offset: 0.000601075
Entropy: 0.997234582901001
Num Peaks: 96
44.049625396728516 19324.0
58.062835693359375 207.0
85.02910614013672 218.0
115.05477905273438 546.0
127.05284881591797 195.0
129.068115234375 233.0
139.0561065673828 612.0
140.0624237060547 184.0
141.07237243652344 1255.0
144.0565948486328 196.0
150.0447998046875 230.0
151.0538330078125 1735.0
152.05758666992188 858.0
153.06814575195312 1663.0
154.08029174804688 655.0
155.08531188964844 1425.0
163.0547637939453 308.0
164.06161499023438 452.0
165.06976318359375 23716.0
166.0810089111328 8028.0
167.08444213867188 942.0
168.05633544921875 1386.0
169.06753540039062 414.0
176.0632781982422 8496.0
177.0702362060547 115382.0
178.0782012939453 1521.0
179.08526611328125 1821.0
180.087646484375 226.0
181.0607147216797 1001.0
182.07049560546875 694.0
183.0792694091797 6905.0
185.05747985839844 93.0
187.07510375976562 275.0
189.0689239501953 1607.0
190.0756072998047 883.0
191.08689880371094 3460.0
193.06488037109375 7591.0
194.07431030273438 119493.0
195.0785369873047 1977.0
196.05194091796875 362.0
197.06124877929688 1092.0
198.0652618408203 307.0
201.05677795410156 919.0
202.08087158203125 92.0
204.05868530273438 1157.0
205.06626892089844 198537.0
206.07432556152344 4986.0
207.0828399658203 1982.0
208.08570861816406 1142.0
209.09506225585938 3640.0
210.06820678710938 1366.0
211.07418823242188 17392.0
212.086669921875 267.0
213.0933837890625 365.0
218.07769775390625 378.0
219.07980346679688 1557.0
220.0863037109375 495.0
221.05963134765625 8629.0
222.06857299804688 112330.0
223.07769775390625 10802.0
224.0807342529297 379.0
225.09231567382812 5348.0
226.10195922851562 2199.0
227.07156372070312 706.0
233.05917358398438 31060.0
234.0671844482422 5252.0
235.0730743408203 1311.0
236.08543395996094 1614.0
237.09347534179688 360026.0
238.064697265625 633.0
239.07261657714844 46870.0
240.07395935058594 593.0
247.0780487060547 896.0
248.08053588867188 378.0
249.04962158203125 922.0
250.06497192382812 13448.0
251.07350158691406 12089.0
252.07960510253906 181.0
253.08547973632812 5111.0
254.09559631347656 20747.0
255.0965118408203 189.0
263.0745544433594 524.0
264.0770263671875 976.0
265.0882568359375 349272.0
266.0968322753906 15703.0
267.068359375 31240.0
268.0715026855469 276.0
269.1248779296875 608.0
270.08807373046875 210.0
279.101318359375 519.0
281.08123779296875 608.0
282.09149169921875 40724.0
285.1117858886719 293.0
297.11431884765625 82595.0
313.13494873046875 92.0
328.1587219238281 25424.0

Name: Boldine
Precursor_mz: 328.154606
Cas: 476-70-0
Adduct: [M+H]+
Mz: 328.1543346
Comment: isomer
Smiles: COc1cc2c(cc1O)C[C@H]1c3c(cc(O)c(OC)c3-2)CCN1C
Formula: C19H21NO4
Mix: Alkaloids-pos-mix24
Rt: [2.005]
Rt_apex: 2.190625051
Rt_start: 2.14965
Rt_end: 2.29535
Ms1_intensity: 44077
N_scnas: 25
Ms1_scan_range: [573, 581, 599]
Reci_snr: 0.011477536
Ms2_scan_idx: 945
Pmz_offset: 0.001176335
Entropy: 1.0
Num Peaks: 23
151.05218505859375 92.0
165.0716552734375 324.0
166.07566833496094 211.0
176.0596466064453 300.0
177.07034301757812 1197.0
191.0889434814453 167.0
194.0705108642578 1289.0
205.0643768310547 3322.0
211.0702362060547 189.0
221.05767822265625 271.0
222.0666046142578 1325.0
225.08822631835938 92.0
233.0614471435547 2162.0
234.06301879882812 241.0
237.09144592285156 3086.0
239.0684051513672 418.0
250.0673370361328 677.0
251.06919860839844 171.0
253.09231567382812 92.0
254.0979766845703 395.0
265.08612060546875 7677.0
267.06622314453125 439.0
328.15130615234375 458.0

Name: Dictamine
Precursor_mz: 200.0701632
Cas: 484-29-7
Adduct: [M+H]+
Mz: 200.070605
Comment: Major
Smiles: COc1c2ccccc2nc2occc12
Formula: C12H9NO2
Mix: Alkaloids-pos-mix24
Rt: [3.686]
Rt_apex: 3.681594246
Rt_start: 3.631883333
Rt_end: 4.07655
Ms1_intensity: 4539353
N_scnas: 71
Ms1_scan_range: [821, 829, 893]
Reci_snr: 0.000118721
Ms2_scan_idx: 1751
Pmz_offset: 0.000688207
Entropy: 0.9862830638885498
Num Peaks: 70
43.01919937133789 1224.0
50.01472854614258 1570.0
51.024147033691406 1664.0
52.01935577392578 8452.0
53.03950881958008 349.0
63.023765563964844 631.0
65.0405502319336 704.0
67.01785278320312 453.0
74.01693725585938 767.0
75.02485656738281 1736.0
76.03225708007812 10249.0
77.03897857666016 15680.0
78.04737091064453 71952.0
79.04235076904297 684.0
81.03858184814453 194.0
87.02078247070312 200.0
88.02909088134766 242.0
89.03659057617188 2110.0
90.0338363647461 586.0
91.05403900146484 2153.0
92.04902648925781 1953.0
101.03974151611328 17558.0
102.0466079711914 414851.0
103.0442123413086 26522.0
104.05240631103516 1503.0
105.0353012084961 1145.0
106.06905364990234 92.0
113.03941345214844 441.0
114.04579162597656 200.0
115.05512237548828 8668.0
116.0507583618164 1401.0
117.07041931152344 926.0
118.06710052490234 988.0
119.0373764038086 701.0
120.04698181152344 5116.0
126.04444122314453 581.0
127.0548095703125 6523.0
128.05014038085938 202755.0
129.05892944335938 893799.0
130.03326416015625 2753.0
132.04452514648438 1119.0
133.0575714111328 615.0
139.03997802734375 254.0
140.049560546875 1147.0
141.05612182617188 527.0
142.06796264648438 2212.0
143.07167053222656 3321.0
144.08396911621094 9709.0
145.05250549316406 319.0
146.05650329589844 805.0
153.0581817626953 736.0
154.0685577392578 4081.0
155.05955505371094 661.0
156.0484619140625 26098.0
157.05105590820312 6883.0
160.04263305664062 781.0
161.05084228515625 950.0
170.06031799316406 392.0
171.07568359375 496.0
172.08120727539062 3201.0
182.06346130371094 1844.0
184.04188537597656 315.0
185.05038452148438 759832.0
186.07504272460938 525.0
198.05992126464844 184.0
199.4646453857422 1024.0
200.07357788085938 301450.0
200.98971557617188 197.0
201.14096069335938 200.0
202.0535430908203 92.0

Name: Aurantiamide
Precursor_mz: 403.2027121
Cas: 58115-31-4
Adduct: [M+H]+
Mz: 403.2016192
Comment: Major
Smiles: O=C(N[C@@H](Cc1ccccc1)C(=O)N[C@H](CO)Cc1ccccc1)c1ccccc1
Formula: C25H26N2O3
Mix: Alkaloids-pos-mix24
Rt: [4.071]
Rt_apex: 4.071087216
Rt_start: 4.018716667
Rt_end: 4.433533333
Ms1_intensity: 4224756
N_scnas: 67
Ms1_scan_range: [884, 892, 952]
Reci_snr: 6.26e-05
Ms2_scan_idx: 1980
Pmz_offset: 0.002638194
Entropy: 0.9914143681526184
Num Peaks: 41
50.015628814697266 268.0
51.02305221557617 2512.0
53.03839111328125 249.0
65.03590393066406 913.0
77.0388412475586 69376.0
79.0559310913086 555.0
91.05387878417969 390750.0
93.0695571899414 184.0
95.0470962524414 525.0
103.05257415771484 1599.0
104.05364990234375 255.0
105.0336685180664 1118824.0
106.1324691772461 172.0
115.0549087524414 4427.0
117.07020568847656 347957.0
120.0805892944336 4595.0
130.06503295898438 1719.0
131.0479736328125 680.0
132.07977294921875 512.0
134.09698486328125 14654.0
135.07870483398438 1703.0
148.0746307373047 382.0
152.10794067382812 392814.0
160.0742950439453 214.0
162.09228515625 2693.0
178.07839965820312 282.0
181.09869384765625 627.0
189.10580444335938 345.0
207.0810546875 237.0
224.10829162597656 363497.0
238.12342834472656 277.0
239.1119384765625 187.0
251.11602783203125 1443.0
252.10438537597656 10856.0
254.1585235595703 192.0
256.1311340332031 210.0
264.138916015625 4655.0
294.1347351074219 223.0
367.1793212890625 736.0
385.19415283203125 75331.0
403.2034912109375 267.0

Name: Aurantiamide
Precursor_mz: 403.2025833
Cas: 58115-31-4
Adduct: [M+H]+
Mz: 403.2016192
Comment: isomer
Smiles: O=C(N[C@@H](Cc1ccccc1)C(=O)N[C@H](CO)Cc1ccccc1)c1ccccc1
Formula: C25H26N2O3
Mix: Alkaloids-pos-mix24
Rt: [4.071]
Rt_apex: 5.416031977
Rt_start: 5.34825
Rt_end: 5.5614
Ms1_intensity: 54566
N_scnas: 42
Ms1_scan_range: [1156, 1167, 1199]
Reci_snr: 0.001042036
Ms2_scan_idx: 2531
Pmz_offset: 0.002509359
Entropy: 0.9999998807907104
Num Peaks: 10
77.03758239746094 154.0
91.05250549316406 1036.0
105.03363800048828 1849.0
115.05487823486328 93.0
117.06865692138672 462.0
134.09368896484375 62.0
139.00161743164062 62.0
152.10617065429688 469.0
224.11032104492188 558.0
385.1857604980469 154.0

Name: Aurantiamide
Precursor_mz: 425.1830033
Cas: 58115-31-4
Adduct: [M+Na]+
Mz: 425.1835634
Comment: Major
Smiles: O=C(N[C@@H](Cc1ccccc1)C(=O)N[C@H](CO)Cc1ccccc1)c1ccccc1
Formula: C25H26N2O3
Mix: Alkaloids-pos-mix24
Rt: [4.071]
Rt_apex: 4.070692395
Rt_start: 4.018716667
Rt_end: 4.349366667
Ms1_intensity: 495877
N_scnas: 52
Ms1_scan_range: [884, 892, 937]
Reci_snr: 0.000415035
Ms2_scan_idx: 2019
Pmz_offset: 0.000267367
Entropy: 0.9026310443878174
Num Peaks: 6
91.05522918701172 62.0
105.03943634033203 62.0
106.0370864868164 123.0
117.06871032714844 62.0
274.08612060546875 92.0
425.18768310546875 10033.0

Name: Stylopine hydrochloride
Precursor_mz: 324.1234619
Cas: 96087-21-7
Adduct: [M+H]+
Mz: 324.1230345
Comment: Major
Smiles: c1cc2c(c3c1CC1c4cc5c(cc4CCN1C3)OCO5)OCO2
Formula: C19H17NO4
Mix: Alkaloids-pos-mix24
Rt: [2.692]
Rt_apex: 2.694232463
Rt_start: 2.64215
Rt_end: 3.047216667
Ms1_intensity: 1808607
N_scnas: 65
Ms1_scan_range: [659, 668, 725]
Reci_snr: 0.000504159
Ms2_scan_idx: 1176
Pmz_offset: 0.001780589
Entropy: 0.9417797327041626
Num Peaks: 78
44.049686431884766 276.0
54.03543472290039 301.0
65.03591918945312 982.0
77.0363998413086 1079.0
79.05470275878906 295.0
89.03910064697266 234.0
91.05390167236328 56830.0
93.06822967529297 818.0
103.05403137207031 1870.0
105.05958557128906 570.0
115.05193328857422 471.0
116.04755401611328 446.0
117.05809783935547 1709.0
118.0638656616211 7607.0
119.0494384765625 41428.0
120.08216094970703 565.0
121.06684112548828 1794.0
130.06668090820312 625.0
131.0512237548828 1960.0
133.05735778808594 192.0
134.061279296875 254.0
135.04286193847656 4054.0
143.0446014404297 286.0
145.0489044189453 169.0
146.06137084960938 2785.0
147.04331970214844 239.0
149.05992126464844 118659.0
158.06192016601562 308.0
159.0426483154297 3316.0
160.05125427246094 191.0
161.04881286621094 4999.0
163.0782928466797 350.0
164.06544494628906 396.0
165.0681915283203 408.0
173.05799865722656 783.0
174.0563507080078 11156.0
175.05941772460938 1115.0
176.0709686279297 556458.0
177.0704803466797 303.0
178.080322265625 453.0
179.08177185058594 1065.0
188.07095336914062 2592.0
189.07884216308594 2730.0
190.0778045654297 875.0
191.08328247070312 2538.0
193.0963592529297 194.0
201.06900024414062 394.0
204.0649871826172 177.0
207.0811004638672 1871.0
208.11231994628906 184.0
209.09535217285156 201.0
218.0738525390625 205.0
219.0842742919922 4589.0
221.0954132080078 244.0
222.06678771972656 214.0
223.07801818847656 460.0
234.0782470703125 293.0
235.0734100341797 859.0
236.10733032226562 601.0
237.09164428710938 1663.0
247.07177734375 735.0
248.0875244140625 259.0
249.09205627441406 4876.0
250.0631103515625 213.0
251.1005401611328 970.0
262.0675354003906 376.0
264.09564208984375 263.0
265.0840759277344 1529.0
266.1201171875 1755.0
277.0844421386719 2776.0
279.0899963378906 294.0
281.0863342285156 378.0
292.0733947753906 255.0
294.11798095703125 954.0
295.1007385253906 1081.0
322.10894775390625 212.0
323.13232421875 351.0
324.1244812011719 243204.0

Name: 1-Methyl-6-oxo-1,6-dihydropyridine-3-carboxylic acid
Precursor_mz: 154.0495842
Cas: 3719-45-7
Adduct: [M+H]+
Mz: 154.0498695
Comment: Major
Smiles: Cn1cc(C(=O)O)ccc1=O
Formula: C7H7NO3
Mix: Alkaloids-pos-mix24
Rt: [1.162]
Rt_apex: 1.162115652
Rt_start: 1.094916667
Rt_end: 1.3656
Ms1_intensity: 484979
N_scnas: 64
Ms1_scan_range: [342, 358, 407]
Reci_snr: 0.000474561
Ms2_scan_idx: 452
Pmz_offset: 0.00202581
Entropy: 0.9974112510681152
Num Peaks: 39
40.0299186706543 92.0
41.03053283691406 480.0
42.03348922729492 2515.0
43.0181770324707 93.0
50.015602111816406 481.0
51.02302551269531 3408.0
52.01923370361328 291.0
53.0404052734375 5511.0
54.03642272949219 617.0
55.05628204345703 313.0
56.05099868774414 154.0
58.028656005859375 251.0
65.04039764404297 2550.0
66.03218841552734 693.0
67.04181671142578 4720.0
68.04869842529297 123.0
70.066162109375 93.0
78.0335464477539 5373.0
79.02220153808594 244.0
80.05097198486328 4070.0
81.03712463378906 295.0
82.06363677978516 868.0
92.05284881591797 1775.0
93.01942443847656 123.0
94.02777862548828 2001.0
95.01421356201172 673.0
96.0456771850586 373.0
108.04791259765625 17458.0
109.05091857910156 931.0
110.0615005493164 6223.0
111.03237915039062 805.0
112.0372314453125 154.0
122.0244369506836 777.0
123.013916015625 180.0
126.0583267211914 1534.0
136.0426483154297 564.0
139.0313720703125 154.0
140.03262329101562 433.0
154.05252075195312 14736.0

Name: 1-Methyl-6-oxo-1,6-dihydropyridine-3-carboxylic acid
Precursor_mz: 176.0299937
Cas: 3719-45-7
Adduct: [M+Na]+
Mz: 176.0318138
Comment: Major
Smiles: Cn1cc(C(=O)O)ccc1=O
Formula: C7H7NO3
Mix: Alkaloids-pos-mix24
Rt: [1.162]
Rt_apex: 1.169139698
Rt_start: 1.105983333
Rt_end: 1.22885
Ms1_intensity: 2543
N_scnas: 27
Ms1_scan_range: [346, 359, 374]
Reci_snr: 0.023267183
Ms2_scan_idx: 447
Pmz_offset: 0.002382574
Entropy: 0.8670201301574707
Num Peaks: 4
72.98681640625 808.0
86.01541137695312 62.0
97.00935363769531 62.0
106.99137878417969 488.0

Name: Stachydrine
Precursor_mz: 144.1011287
Cas: 471-87-4
Adduct: [M+H]+
Mz: 144.1019051
Comment: Major
Smiles: C[N+]1(C)CCC[C@H]1C(=O)[O-]
Formula: C7H13NO2
Mix: Alkaloids-pos-mix24
Rt: [0.308]
Rt_apex: 0.306865577
Rt_start: 0.237316667
Rt_end: 0.643183333
Ms1_intensity: 1159736
N_scnas: 97
Ms1_scan_range: [89, 100, 187]
Reci_snr: 0.000145262
Ms2_scan_idx: 136
Pmz_offset: 0.001372642
Entropy: 1.0000001192092896
Num Peaks: 27
41.03764343261719 465.0
42.03431701660156 10718.0
43.019012451171875 1042.0
44.049564361572266 2026.0
46.06531524658203 609.0
53.03825759887695 343.0
55.05513381958008 907.0
56.05088806152344 1990.0
57.059810638427734 154.0
58.06703567504883 28452.0
59.04963684082031 188.0
68.0508804321289 448.0
69.0571060180664 316.0
70.06602478027344 717.0
71.073974609375 178.0
72.08436584472656 581.0
74.0649185180664 123.0
82.0634765625 813.0
83.04911804199219 123.0
84.08309936523438 10692.0
98.10009002685547 602.0
99.04474639892578 304.0
100.07814025878906 92.0
102.05750274658203 1148.0
128.0749969482422 92.0
143.6608428955078 93.0
144.1018829345703 11196.0

Name: L-(+)-Abrine
Precursor_mz: 219.1125536
Cas: 526-31-8
Adduct: [M+H]+
Mz: 219.1128042
Comment: Major
Smiles: CN[C@@H](Cc1c[nH]c2ccccc12)C(=O)O
Formula: C12H14N2O2
Mix: Alkaloids-pos-mix24
Rt: [1.576]
Rt_apex: 1.577338101
Rt_start: 1.462633333
Rt_end: 1.8547
Ms1_intensity: 2423728
N_scnas: 82
Ms1_scan_range: [433, 465, 516]
Reci_snr: 5.55e-05
Ms2_scan_idx: 639
Pmz_offset: 0.001673981
Entropy: 0.999588131904602
Num Peaks: 50
41.038551330566406 93.0
42.033416748046875 49379.0
43.01902389526367 154.0
44.04864501953125 419.0
51.0229377746582 333.0
54.03426742553711 93.0
56.04985046386719 93.0
60.04376220703125 1333.0
65.0368881225586 945.0
70.02963256835938 934.0
77.03743743896484 2521.0
79.05450439453125 1153.0
88.03926849365234 47550.0
89.03887176513672 8795.0
90.04678344726562 4449.0
91.05500793457031 69722.0
93.0558090209961 1156.0
101.03650665283203 301.0
102.04476928710938 211.0
103.05519104003906 3086.0
104.04911804199219 527.0
105.06795501708984 4635.0
106.06573486328125 646.0
114.04531860351562 375.0
115.05464935302734 85290.0
116.05028533935547 4631.0
117.05780029296875 87169.0
118.06509399414062 201567.0
126.04235076904297 259.0
127.05428314208984 4635.0
128.04962158203125 2400.0
129.05841064453125 274.0
130.0647430419922 16044.0
131.07017517089844 3055.0
132.08108520507812 161900.0
140.0473175048828 854.0
141.05221557617188 711.0
142.0640411376953 16128.0
143.07276916503906 34673.0
144.0800018310547 33260.0
145.06373596191406 681.0
146.05929565429688 132919.0
155.0589141845703 583.0
157.0732879638672 375.0
158.08445739746094 622.0
160.0739288330078 766.0
170.0596160888672 11634.0
173.10740661621094 2102.0
188.0704803466797 35182.0
219.1107177734375 276.0

Name: L-(+)-Abrine
Precursor_mz: 241.0927418
Cas: 526-31-8
Adduct: [M+Na]+
Mz: 241.0947484
Comment: Major
Smiles: CN[C@@H](Cc1c[nH]c2ccccc12)C(=O)O
Formula: C12H14N2O2
Mix: Alkaloids-pos-mix24
Rt: [1.576]
Rt_apex: 1.573756876
Rt_start: 1.541333333
Rt_end: 1.632216667
Ms1_intensity: 45764
N_scnas: 15
Ms1_scan_range: [458, 464, 474]
Reci_snr: 0.040430729
Ms2_scan_idx: 615
Pmz_offset: 0.000750465
Entropy: 1.0000001192092896
Num Peaks: 3
91.05509185791016 62.0
110.02166748046875 192.0
115.05625915527344 123.0

Name: TABERSONINE HYDROCHLORIDE
Precursor_mz: 337.1909644
Cas: 29479-00-3
Adduct: [M+H]+
Mz: 337.1910545
Comment: Major
Smiles: CC[C@]12C=CCN3CC[C@]4(C(=C(C(=O)OC)C1)Nc1ccccc14)[C@@H]32
Formula: C21H24N2O2
Mix: Alkaloids-pos-mix24
Rt: [3.045]
Rt_apex: 3.044573968
Rt_start: 2.945116667
Rt_end: 3.380266667
Ms1_intensity: 5301393
N_scnas: 71
Ms1_scan_range: [707, 724, 779]
Reci_snr: 0.000146002
Ms2_scan_idx: 1380
Pmz_offset: 0.002073644
Entropy: 0.9901069402694702
Num Peaks: 188
41.037715911865234 2543.0
42.03257369995117 1050.0
43.05591583251953 249.0
44.04871368408203 549.0
51.023014068603516 242.0
53.038352966308594 750.0
55.05419158935547 1650.0
56.04888916015625 577.0
65.03925323486328 527.0
67.05445098876953 7286.0
68.0486831665039 1735.0
69.06889343261719 1092.0
72.04637145996094 203.0
77.03878784179688 4250.0
78.03353118896484 543.0
79.05462646484375 7433.0
80.04844665527344 11757.0
81.06996154785156 5520.0
82.0636215209961 1823.0
83.08380126953125 558.0
89.04165649414062 334.0
91.0538101196289 14226.0
92.05014038085938 1028.0
93.06678771972656 12322.0
94.06587219238281 6111.0
95.08397674560547 2625.0
96.07867431640625 195.0
101.0352554321289 190.0
103.05392456054688 837.0
104.06072998046875 318.0
105.068115234375 3518.0
106.064453125 16676.0
107.0756607055664 8167.0
108.07998657226562 29461.0
109.1007308959961 1769.0
110.09534454345703 6625.0
115.0533218383789 7644.0
116.04743957519531 695.0
117.06101989746094 3925.0
118.06680297851562 4338.0
119.08454132080078 3123.0
120.08050537109375 6544.0
121.08988952636719 4307.0
122.0972900390625 35417.0
124.11522674560547 609.0
127.05132293701172 2459.0
128.06094360351562 8405.0
129.06976318359375 16447.0
130.06494140625 18188.0
131.07199096679688 1145.0
132.08128356933594 4595.0
133.04913330078125 350.0
134.09689331054688 24669.0
135.10633850097656 1549.0
136.11302185058594 134111.0
139.0528564453125 556.0
140.04588317871094 725.0
141.06910705566406 8477.0
142.06761169433594 8334.0
143.0797119140625 7799.0
144.08192443847656 34091.0
145.08424377441406 479.0
146.0951385498047 2762.0
147.10784912109375 292.0
148.10867309570312 1705.0
149.1197509765625 253.0
151.0521697998047 616.0
152.0611114501953 650.0
153.06300354003906 1945.0
154.06468200683594 24429.0
155.07139587402344 16739.0
156.0813751220703 66811.0
157.09112548828125 1936.0
158.09706115722656 2039.0
159.1044464111328 299.0
160.07595825195312 2600.0
162.09039306640625 5905.0
166.06117248535156 2518.0
167.07362365722656 65807.0
168.08187866210938 416564.0
169.08221435546875 7663.0
170.09649658203125 68546.0
171.08995056152344 6288.0
172.0752410888672 786.0
174.0913543701172 2020.0
176.10804748535156 430.0
178.06329345703125 468.0
179.08346557617188 257.0
180.0820770263672 3996.0
181.0872344970703 1344.0
182.08572387695312 1793.0
183.0907440185547 2106.0
184.07760620117188 6558.0
185.11865234375 982.0
186.09371948242188 674.0
188.07269287109375 3049.0
191.07534790039062 285.0
192.07955932617188 519.0
193.08641052246094 967.0
194.0959014892578 2376.0
195.09625244140625 1758.0
196.0775604248047 79825.0
197.10862731933594 731.0
198.0910186767578 6486.0
200.10484313964844 3302.0
202.08494567871094 6378.0
203.0696563720703 201.0
204.08282470703125 3685.0
205.0924835205078 1657.0
206.09657287597656 3405.0
207.0950469970703 2217.0
208.10806274414062 2416.0
209.10733032226562 546.0
210.1293182373047 1097.0
211.08651733398438 416.0
212.10720825195312 496.0
213.07708740234375 796.0
214.0861358642578 3223.0
215.09140014648438 330.0
216.10313415527344 17592.0
217.08624267578125 1985.0
218.09437561035156 4327.0
219.09652709960938 8379.0
220.10513305664062 5400.0
221.10772705078125 5272.0
222.12722778320312 1469.0
223.09666442871094 657.0
226.08517456054688 247.0
228.1048126220703 165329.0
229.0978240966797 747.0
230.11639404296875 9559.0
231.10736083984375 3739.0
232.10902404785156 3431.0
233.11068725585938 12575.0
234.11666870117188 5700.0
235.12481689453125 9216.0
236.1437530517578 8621.0
237.1022186279297 462.0
242.11143493652344 1432.0
243.10818481445312 305.0
244.1091766357422 894.0
245.1166229248047 1982.0
246.12612915039062 1013.0
247.12228393554688 18634.0
248.13812255859375 8495.0
249.14053344726562 67648.0
250.15829467773438 2568.0
251.15811157226562 934.0
254.11807250976562 204.0
255.11903381347656 279.0
256.1309509277344 384.0
257.10662841796875 863.0
258.1179504394531 887.0
259.1199951171875 1191.0
260.1465759277344 4342.0
261.1434631347656 2108.0
262.1490783691406 3008.0
263.1589050292969 6056.0
264.15924072265625 2484.0
266.1175537109375 225.0
270.1458435058594 243.0
271.1224060058594 548.0
272.1285095214844 316.0
273.1341552734375 531.0
274.1114501953125 545.0
275.1253967285156 7694.0
276.1295471191406 3627.0
277.16827392578125 38231.0
278.15509033203125 4324.0
285.130859375 203.0
287.1557922363281 1154.0
288.1292419433594 610.0
289.14013671875 863.0
290.1360778808594 321.0
294.1513671875 433.0
303.14862060546875 12187.0
305.16778564453125 350197.0
306.18109130859375 153.0
307.1444396972656 1419.0
308.16351318359375 421.0
309.1546325683594 1680.0
320.1646423339844 508.0
335.1820068359375 1342.0
336.16162109375 912.0
337.1941833496094 487439.0
338.1973571777344 173.0
338.3780517578125 204.0
338.57684326171875 235.0

Name: TETRAHYDROPIPERINE
Precursor_mz: 290.1750489
Cas: 23434-88-0
Adduct: [M+H]+
Mz: 290.1750701
Comment: Major
Smiles: O=C(CCCCc1ccc2c(c1)OCO2)N1CCCCC1
Formula: C17H23NO3
Mix: Alkaloids-pos-mix25
Rt: [4.481]
Rt_apex: 4.477449626
Rt_start: 4.419466667
Rt_end: 5.33225
Ms1_intensity: 8819472
N_scnas: 202
Ms1_scan_range: [952, 962, 1155]
Reci_snr: 0.000175181
Ms2_scan_idx: 2216
Pmz_offset: 0.000635649
Entropy: 0.9954462647438049
Num Peaks: 78
41.0384521484375 125940.0
42.032405853271484 808.0
43.01615905761719 432.0
44.04853820800781 442.0
51.021820068359375 716.0
53.03815460205078 308.0
55.05294418334961 2927.0
56.04973220825195 2200.0
57.05758285522461 304.0
60.04472732543945 215.0
65.03675842285156 819.0
67.05306243896484 2805.0
69.06982421875 301216.0
70.06473541259766 6541.0
77.03852844238281 11661.0
79.05310821533203 6703.0
81.06842803955078 244.0
82.06207275390625 244.0
83.0477066040039 2635.0
84.08039855957031 48412.0
85.04956817626953 298.0
86.09589385986328 1104271.0
87.09884643554688 209.0
91.05352020263672 30798.0
93.02993774414062 1012.0
94.064208984375 186.0
95.0467300415039 526.0
96.08248901367188 203.0
98.09578704833984 5346.0
99.06835174560547 713.0
102.04602813720703 621.0
103.05360412597656 145439.0
104.05611419677734 266.0
105.06922149658203 19057.0
107.04918670654297 16330.0
109.06521606445312 199.0
110.09942626953125 223.0
112.07548522949219 340149.0
115.05297088623047 3251.0
116.06220245361328 1210.0
117.06977081298828 2981.0
119.08570861816406 6774.0
121.02930450439453 295.0
122.03489685058594 179.0
123.04309844970703 297.0
124.11016082763672 2354.0
126.12568664550781 1118.0
127.09998321533203 1786.0
128.060546875 1908.0
129.06777954101562 4527.0
131.04910278320312 311334.0
132.05831909179688 2550.0
133.06492614746094 33632.0
135.04396057128906 124253.0
137.06224060058594 388.0
138.08770751953125 296.0
140.10691833496094 1220.0
141.0703582763672 916.0
144.0528564453125 269.0
145.06185913085938 1753.0
147.08189392089844 36634.0
149.05934143066406 2341.0
154.12347412109375 1749.0
157.0660400390625 1479.0
159.0774383544922 2058.0
161.06065368652344 168619.0
163.07229614257812 379.0
168.13963317871094 235984.0
175.07733154296875 651.0
177.09222412109375 942.0
187.07273864746094 2410.0
189.08970642089844 391.0
205.08790588378906 73026.0
260.1730651855469 670.0
289.2825927734375 567.0
290.1783752441406 346222.0
291.27667236328125 173.0
291.4635009765625 181.0

Name: TETRAHYDROPIPERINE
Precursor_mz: 312.1572346
Cas: 23434-88-0
Adduct: [M+Na]+
Mz: 312.1570143
Comment: Major
Smiles: O=C(CCCCc1ccc2c(c1)OCO2)N1CCCCC1
Formula: C17H23NO3
Mix: Alkaloids-pos-mix25
Rt: [4.481]
Rt_apex: 4.478828831
Rt_start: 4.4332
Rt_end: 4.951266667
Ms1_intensity: 334154
N_scnas: 97
Ms1_scan_range: [954, 962, 1052]
Reci_snr: 0.000188403
Ms2_scan_idx: 2221
Pmz_offset: 0.002338284
Entropy: nan
Num Peaks: 5
311.2082214355469 62.0
312.1695251464844 6384.0
313.1273498535156 31.0
313.2838134765625 31.0
313.43536376953125 31.0

Name: Allosecurinine
Precursor_mz: 218.1166518
Cas: 884-68-4
Adduct: [M+H]+
Mz: 218.1175552
Comment: Major
Smiles: O=C1C=C2C=CC3CC2(O1)C1CCCCN31
Formula: C13H15NO2
Mix: Alkaloids-pos-mix25
Rt: [0.933]
Rt_apex: 0.925942741
Rt_start: 0.664066667
Rt_end: 1.5094
Ms1_intensity: 696820
N_scnas: 259
Ms1_scan_range: [185, 266, 445]
Reci_snr: 0.000968799
Ms2_scan_idx: 329
Pmz_offset: 0.001585611
Entropy: 0.9982373118400574
Num Peaks: 55
41.03675079345703 75.0
42.033416748046875 169.0
53.03828048706055 67.0
55.053077697753906 867.0
56.04986572265625 2601.0
57.07149887084961 37.0
65.03691864013672 114.0
67.04173278808594 249.0
68.04976654052734 1108.0
69.0583267211914 48.0
77.03624725341797 85.0
79.05455017089844 72.0
80.04837036132812 602.0
82.06481170654297 11208.0
83.073486328125 993.0
84.0818862915039 15477.0
89.03761291503906 33.0
91.0550765991211 496.0
94.0644302368164 62.0
100.075439453125 37.0
103.05670166015625 101.0
104.05206298828125 41.0
105.07091522216797 63.0
107.05089569091797 64.0
115.05174255371094 312.0
116.04736328125 43.0
117.06852722167969 188.0
118.06520080566406 232.0
127.05599212646484 207.0
128.0608673095703 558.0
129.06968688964844 917.0
130.0648651123047 249.0
132.07960510253906 50.0
134.09518432617188 78.0
142.06753540039062 40.0
143.07290649414062 116.0
144.08184814453125 348.0
145.09938049316406 31.0
146.0594482421875 72.0
147.06861877441406 474.0
154.0628662109375 40.0
156.08480834960938 73.0
158.09698486328125 219.0
159.10260009765625 59.0
160.07765197753906 59.0
162.09031677246094 1148.0
170.09825134277344 111.0
172.11383056640625 341.0
174.13201904296875 99.0
184.07562255859375 49.0
185.08993530273438 31.0
190.08721923828125 388.0
198.09095764160156 137.0
200.10675048828125 395.0
218.11917114257812 4383.0

Name: (+)-Coclaurine
Precursor_mz: 286.1447048
Cas: 2196-60-3
Adduct: [M+H]+
Mz: 286.1437699
Comment: Major
Smiles: COc1cc2c(cc1O)[C@@H](Cc1ccc(O)cc1)NCC2
Formula: C17H19NO3
Mix: Alkaloids-pos-mix25
Rt: [1.937]
Rt_apex: 1.936949823
Rt_start: 1.8992
Rt_end: 2.538833333
Ms1_intensity: 2312337
N_scnas: 101
Ms1_scan_range: [530, 537, 632]
Reci_snr: 6.09e-05
Ms2_scan_idx: 773
Pmz_offset: 0.00235608
Entropy: 0.9783206582069397
Num Peaks: 114
43.01805114746094 375.0
51.022884368896484 785.0
53.0382194519043 355.0
55.01657485961914 665.0
65.0368423461914 233.0
77.03861999511719 21969.0
79.05320739746094 5113.0
81.03314971923828 260.0
89.03882598876953 945.0
91.05362701416016 8229.0
93.06930541992188 718.0
94.04254913330078 1649.0
95.04684448242188 921.0
102.04756927490234 658.0
103.05372619628906 4493.0
104.06196594238281 437.0
105.06647491455078 466.0
107.04931640625 635011.0
108.05644226074219 256.0
109.06241607666016 628.0
114.04679107666016 336.0
115.05461883544922 57831.0
116.06083679199219 1617.0
117.06838989257812 4749.0
118.04066467285156 355.0
119.04910278320312 2949.0
120.0572280883789 284.0
121.06187438964844 3548.0
122.0365982055664 2312.0
127.05426025390625 5680.0
128.0591278076172 598.0
129.07432556152344 448.0
130.04071044921875 533.0
131.05087280273438 11262.0
132.05686950683594 2283.0
133.06671142578125 470.0
134.0592803955078 332.0
135.07022094726562 306.0
136.05221557617188 465.0
137.05911254882812 17803.0
141.0721893310547 950.0
143.0492401123047 35937.0
144.05809020996094 3888.0
145.06541442871094 12293.0
146.03892517089844 305.0
147.0429229736328 1434.0
148.0828094482422 251.0
151.0743408203125 2919.0
152.0591278076172 1378.0
153.07142639160156 1723.0
155.06239318847656 625.0
157.0662384033203 736.0
160.05084228515625 12503.0
161.06085205078125 880.0
162.06689453125 1090.0
163.07608032226562 2928.0
164.06861877441406 374.0
165.06956481933594 15044.0
166.07899475097656 8154.0
167.08424377441406 1181.0
168.05795288085938 782.0
169.0673370361328 673.0
175.07754516601562 28310.0
176.0630645751953 591.0
177.06443786621094 576.0
178.0873565673828 3319.0
179.0906982421875 1373.0
180.0930938720703 187.0
181.0680694580078 4969.0
182.06838989257812 987.0
183.08096313476562 1559.0
189.07257080078125 4942.0
190.07733154296875 7243.0
191.08668518066406 13667.0
192.08705139160156 292.0
193.06857299804688 820.0
194.0740966796875 29043.0
195.08224487304688 1657.0
197.05709838867188 2837.0
198.0729522705078 231.0
200.06285095214844 367.0
201.07247924804688 2633.0
202.07666015625 891.0
203.0913543701172 173.0
205.070068359375 425.0
207.08059692382812 2373.0
208.08953857421875 2187.0
209.09686279296875 29018.0
210.06594848632812 488.0
211.07601928710938 2487.0
212.08236694335938 1306.0
217.06524658203125 198.0
218.07125854492188 1947.0
219.0816650390625 6938.0
220.08816528320312 980.0
221.06358337402344 790.0
222.06625366210938 2173.0
223.07957458496094 1321.0
224.0825958251953 220.0
225.05418395996094 479.0
226.1038360595703 214.0
229.07412719726562 244.0
235.07498168945312 863.0
236.08518981933594 945.0
237.09539794921875 30351.0
238.1034393310547 1580.0
239.07237243652344 5389.0
240.08242797851562 1084.0
241.08807373046875 319.0
253.08299255371094 339.0
254.09535217285156 8694.0
267.1025085449219 289.0
269.1200256347656 32180.0
286.1503601074219 7082.0

Name: Ipecoside
Precursor_mz: 566.2246792
Cas: 15401-60-2
Adduct: [M+H]+
Mz: 566.223202
Comment: Major
Smiles: C=C[C@H]1[C@H](O[C@@H]2O[C@H](CO)[C@@H](O)[C@H](O)[C@H]2O)OC=C(C(=O)OC)[C@H]1C[C@@H]1c2cc(O)c(O)cc2CCN1C(C)=O
Formula: C27H35NO12
Mix: Alkaloids-pos-mix25
Rt: [2.522]
Rt_apex: 2.524966385
Rt_start: 2.425
Rt_end: 2.78315
Ms1_intensity: 1466317
N_scnas: 53
Ms1_scan_range: [614, 630, 668]
Reci_snr: 6.23e-05
Ms2_scan_idx: 1127
Pmz_offset: 0.001279028
Entropy: 0.9945463538169861
Num Peaks: 139
43.01618576049805 310.0
60.044761657714844 228.0
69.03137969970703 407.0
71.01239776611328 308.0
77.03857421875 784.0
79.05316162109375 573.0
81.03562927246094 239.0
85.02891540527344 944.0
86.05949401855469 438.0
91.05357360839844 657.0
94.03704833984375 373.0
95.04541778564453 396.0
97.02851867675781 627.0
103.04939270019531 350.0
105.0347671508789 239.0
107.04634857177734 1418.0
109.0638198852539 660.0
115.0560531616211 586.0
117.06983947753906 954.0
119.04444122314453 366.0
121.06334686279297 363.0
122.03497314453125 314.0
123.04317474365234 623.0
124.03833770751953 765.0
125.05789947509766 163.0
127.03678131103516 677.0
131.04917907714844 709.0
133.0261688232422 603.0
135.0424041748047 769.0
137.06231689453125 3901.0
141.07211303710938 267.0
145.06362915039062 2008.0
149.05943298339844 1273.0
151.0397491455078 2911.0
153.0504913330078 232.0
154.08523559570312 386.0
155.04832458496094 313.0
157.0643768310547 171.0
159.04212951660156 3180.0
161.06253051757812 827.0
162.05429077148438 335.0
163.0759735107422 6348.0
164.07211303710938 21441.0
165.05503845214844 154462.0
166.08432006835938 529.0
167.0696258544922 7245.0
169.10008239746094 498.0
173.05929565429688 2844.0
175.07557678222656 5917.0
176.06668090820312 493.0
177.05311584472656 729.0
178.08912658691406 1237.0
179.08120727539062 596.0
180.10240173339844 31526.0
183.06756591796875 1317.0
186.07034301757812 192.0
187.0747833251953 1047.0
188.07229614257812 169.0
189.05702209472656 184.0
190.0888214111328 4936.0
191.06716918945312 2663.0
192.1024932861328 1032.0
193.0996551513672 180.0
196.0968017578125 2705.0
197.0885009765625 1102.0
199.075439453125 279.0
201.0962371826172 272.0
203.07923889160156 222.0
206.08204650878906 9008.0
207.0784454345703 518.0
208.10154724121094 317.0
213.09303283691406 235.0
214.0815887451172 1020.0
215.10330200195312 4499.0
216.1006317138672 1624.0
217.08164978027344 471.0
220.0984344482422 544.0
221.0926513671875 1027.0
222.11212158203125 26979.0
225.09405517578125 3383.0
229.08885192871094 204.0
230.0818634033203 568.0
231.07916259765625 429.0
232.09999084472656 6434.0
234.11404418945312 7824.0
239.10911560058594 689.0
240.10401916503906 304.0
242.11749267578125 3118.0
243.09893798828125 10083.0
245.08096313476562 663.0
248.08456420898438 168.0
249.09130859375 1487.0
256.10125732421875 379.0
257.11737060546875 252.0
258.0700988769531 572.0
260.0940246582031 75855.0
261.0794677734375 314.0
262.10992431640625 1167.0
265.08099365234375 219.0
266.11932373046875 432.0
267.1046447753906 3248.0
274.14111328125 1590.0
277.0882873535156 1528.0
284.1311950683594 7531.0
285.10662841796875 569.0
286.14068603515625 543.0
288.1239318847656 342.0
294.1147155761719 695.0
295.0926513671875 2702.0
298.1427917480469 193.0
302.1153564453125 36386.0
304.11151123046875 637.0
308.12841796875 197.0
309.1096496582031 195.0
312.1270751953125 22724.0
313.107177734375 2374.0
316.11407470703125 465.0
320.11883544921875 193.0
326.1377868652344 1313.0
327.1269226074219 281.0
329.1122741699219 243.0
330.1365051269531 118131.0
334.1288146972656 5747.0
336.1146545410156 1070.0
344.1533508300781 3182.0
354.130615234375 6351.0
362.1643371582031 678.0
372.1484069824219 16590.0
386.1632995605469 6290.0
404.17523193359375 33008.0
446.1520690917969 194.0
456.1673889160156 297.0
464.144775390625 188.0
474.18170166015625 1266.0
492.1929626464844 6962.0
516.1869506835938 260.0
534.2028198242188 696.0
548.2081909179688 488.0
566.221923828125 3877.0

Name: Ipecoside
Precursor_mz: 588.2084848
Cas: 15401-60-2
Adduct: [M+Na]+
Mz: 588.2051463
Comment: Major
Smiles: C=C[C@H]1[C@H](O[C@@H]2O[C@H](CO)[C@@H](O)[C@H](O)[C@H]2O)OC=C(C(=O)OC)[C@H]1C[C@@H]1c2cc(O)c(O)cc2CCN1C(C)=O
Formula: C27H35NO12
Mix: Alkaloids-pos-mix25
Rt: [2.522]
Rt_apex: 2.506263058
Rt_start: 2.444166667
Rt_end: 2.640983333
Ms1_intensity: 104365
N_scnas: 28
Ms1_scan_range: [618, 627, 647]
Reci_snr: 0.019878734
Ms2_scan_idx: 1145
Pmz_offset: 0.001410657
Entropy: 0.9652956128120422
Num Peaks: 10
164.07223510742188 1091.0
206.0862274169922 832.0
228.0600128173828 26397.0
229.07203674316406 92.0
255.08511352539062 92.0
313.092529296875 365.0
356.10638427734375 415.0
394.13555908203125 1420.0
426.1539611816406 1028.0
588.2075805664062 19835.0

Name: ranaconitine
Precursor_mz: 601.3150207
Cas: 1360-76-5
Adduct: [M+H]+
Mz: 601.3119575
Comment: Major
Smiles: CCN1C[C@]2(OC(=O)c3ccccc3NC(C)=O)CC[C@H](OC)[C@@]34[C@@H]2C[C@@](O)([C@@H]13)[C@@]1(O)C[C@H](OC)C2C[C@@H]4[C@]1(O)[C@H]2OC
Formula: C32H44N2O9
Mix: Alkaloids-pos-mix25
Rt: [2.796]
Rt_apex: 2.794635119
Rt_start: 2.73565
Rt_end: 3.488466667
Ms1_intensity: 9788931
N_scnas: 123
Ms1_scan_range: [661, 670, 785]
Reci_snr: 3.22e-05
Ms2_scan_idx: 1316
Pmz_offset: 0.003380099
Entropy: 0.9233238101005554
Num Peaks: 312
41.040260314941406 525.0
44.04948043823242 293.0
45.03476333618164 351.0
46.06618118286133 723.0
47.04861068725586 230.0
56.0486946105957 190.0
58.06480407714844 2968.0
59.04954528808594 181.0
71.04903411865234 3305.0
72.08187866210938 399.0
75.04388427734375 2811.0
77.03731536865234 229.0
79.05562591552734 497.0
82.06718444824219 298.0
83.05156707763672 183.0
84.08171081542969 2771.0
85.02888488769531 487.0
88.07601165771484 1108.0
89.05860900878906 184.0
91.05487823486328 1070.0
92.04852294921875 681.0
93.0692138671875 542.0
94.0642318725586 240.0
95.0481185913086 433.0
96.07975769042969 414.0
97.0644302368164 696.0
98.09302520751953 492.0
100.07662200927734 4480.0
101.06034851074219 803.0
102.09283447265625 198.0
103.0550537109375 233.0
105.06925201416016 1146.0
107.0506591796875 728.0
108.0767593383789 1503.0
109.06523895263672 520.0
110.09797668457031 765.0
111.04535675048828 375.0
112.07848358154297 787.0
113.06118774414062 546.0
114.09163665771484 425.0
115.0514907836914 949.0
116.05013275146484 275.0
117.06827545166016 1243.0
119.08267974853516 788.0
120.04480743408203 9465.0
121.0663833618164 5230.0
122.0969467163086 1501.0
123.04157257080078 265.0
124.0820541381836 657.0
125.0594253540039 505.0
126.09104919433594 518.0
127.05255126953125 182.0
128.0669403076172 722.0
129.07418823242188 1352.0
131.08447265625 1184.0
132.08253479003906 192.0
133.0617218017578 660.0
134.0997772216797 1001.0
135.0814971923828 629.0
136.07662963867188 722.0
137.05897521972656 734.0
138.05641174316406 715.0
139.07896423339844 553.0
140.10861206054688 271.0
141.07371520996094 1062.0
142.093994140625 1104.0
143.08938598632812 1263.0
144.04615783691406 1181.0
145.0652618408203 1619.0
146.09814453125 966.0
147.08192443847656 745.0
148.1116943359375 1343.0
149.0559539794922 280.0
150.09432983398438 397.0
151.03451538085938 315.0
152.10743713378906 279.0
153.07127380371094 573.0
154.0886688232422 334.0
155.0867156982422 1838.0
157.06784057617188 611.0
158.09664916992188 846.0
159.0810089111328 1174.0
160.11460876464844 978.0
161.09097290039062 539.0
162.05601501464844 57453.0
163.07949829101562 495.0
164.10800170898438 608.0
165.06759643554688 1437.0
166.0806427001953 458.0
167.08770751953125 1540.0
168.09780883789062 219.0
169.0635223388672 748.0
171.08583068847656 2193.0
172.10977172851562 1054.0
173.09616088867188 820.0
174.1260986328125 716.0
175.07180786132812 558.0
176.07220458984375 1156.0
177.09226989746094 655.0
178.07969665527344 777.0
179.0848846435547 2245.0
180.06654357910156 555.0
181.08865356445312 2044.0
182.0814666748047 258.0
183.08837890625 1701.0
184.10569763183594 303.0
185.09909057617188 1297.0
186.12579345703125 504.0
187.08045959472656 780.0
188.1049346923828 482.0
189.08975219726562 526.0
190.13131713867188 570.0
191.08456420898438 1560.0
192.0926971435547 1634.0
193.10153198242188 4141.0
194.08172607421875 1483.0
195.11732482910156 1328.0
196.1085205078125 479.0
197.0923614501953 1456.0
198.13003540039062 410.0
199.07933044433594 846.0
200.10830688476562 1149.0
201.09616088867188 1723.0
202.07447814941406 880.0
203.09715270996094 1021.0
204.09434509277344 758.0
205.10403442382812 1918.0
206.1544952392578 998.0
207.11875915527344 7470.0
208.09742736816406 694.0
209.09869384765625 3969.0
210.13082885742188 654.0
211.1165771484375 1668.0
212.1087188720703 467.0
213.0929412841797 14988.0
214.12257385253906 972.0
215.10939025878906 1325.0
216.14593505859375 458.0
217.10638427734375 3528.0
218.156005859375 1066.0
219.11676025390625 1825.0
220.0858612060547 937.0
221.09466552734375 2181.0
222.12876892089844 814.0
223.114990234375 2998.0
224.13909912109375 571.0
225.12554931640625 2009.0
226.12472534179688 3653.0
227.1091766357422 1570.0
228.14453125 436.0
229.1163787841797 387.0
230.1158447265625 348.0
231.0982666015625 717.0
232.1383819580078 775.0
233.09298706054688 880.0
234.11395263671875 665.0
235.1156463623047 18972.0
236.14102172851562 1049.0
237.13189697265625 2125.0
238.13351440429688 707.0
239.13941955566406 1703.0
240.14308166503906 749.0
241.12051391601562 1521.0
242.1610870361328 379.0
243.1097869873047 847.0
244.13710021972656 559.0
245.10943603515625 7131.0
246.14976501464844 262.0
247.12168884277344 1352.0
248.1463623046875 511.0
249.12664794921875 2388.0
250.15769958496094 537.0
251.113037109375 1782.0
252.1437225341797 424.0
253.1251678466797 3290.0
254.15325927734375 1400.0
255.14308166503906 947.0
256.13482666015625 365.0
257.1150207519531 479.0
258.1511535644531 2598.0
259.119384765625 513.0
261.1292419433594 422.0
262.1575622558594 1560.0
263.1104736328125 21484.0
264.1426696777344 807.0
265.1242980957031 2327.0
266.1558532714844 885.0
267.1389465332031 10352.0
268.1697998046875 921.0
269.1197509765625 1009.0
270.15673828125 584.0
271.1333312988281 429.0
272.1718444824219 706.0
273.1567077636719 291.0
275.1317443847656 1196.0
276.16156005859375 506.0
277.12554931640625 6679.0
278.15911865234375 333.0
279.1406555175781 750.0
280.1732482910156 1955.0
281.1206970214844 2163.0
282.1569519042969 3752.0
283.138427734375 1170.0
284.1689453125 720.0
285.14678955078125 962.0
286.1856994628906 853.0
287.16937255859375 470.0
288.16192626953125 165.0
289.1513977050781 344.0
290.16168212890625 2929.0
291.1593933105469 192.0
293.1454772949219 217.0
294.1867980957031 1791.0
295.1383361816406 42766.0
296.1638488769531 2014.0
297.1500244140625 1452.0
298.18145751953125 1085.0
299.1612854003906 2018.0
300.15972900390625 1527.0
301.1719970703125 442.0
302.1713562011719 764.0
304.1774597167969 292.0
307.1486511230469 280.0
308.167724609375 5867.0
309.1514587402344 2341.0
310.17877197265625 362.0
311.168212890625 630.0
312.1988525390625 3443.0
313.15423583984375 1339.0
314.17822265625 20672.0
315.15655517578125 808.0
316.2012939453125 944.0
318.1707763671875 1889.0
322.1834716796875 4910.0
324.20428466796875 201.0
325.16265869140625 799.0
326.1959533691406 1228.0
327.1648864746094 12063.0
328.1937255859375 6429.0
329.17578125 337.0
330.2103271484375 987.0
331.187744140625 298.0
332.18963623046875 9094.0
334.2030944824219 337.0
336.1968688964844 203.0
340.19708251953125 38068.0
341.17877197265625 703.0
342.21124267578125 611.0
343.1828308105469 181.0
344.2235412597656 2832.0
345.1693115234375 643.0
346.2051696777344 25496.0
348.216064453125 173.0
354.2123718261719 10811.0
358.2091064453125 6396.0
359.18719482421875 3043.0
360.23321533203125 759.0
362.23095703125 810.0
371.07696533203125 394.0
372.2213439941406 130583.0
374.2411804199219 305.0
376.2337951660156 629.0
377.1952819824219 204.0
386.23760986328125 19790.0
390.2359619140625 32102.0
392.2567443847656 307.0
403.0050964355469 285.0
404.2456359863281 144201.0
405.18292236328125 308.0
408.2451477050781 1295.0
414.1899719238281 277.0
420.96343994140625 415.0
422.2601318359375 183266.0
432.18304443359375 315.0
437.221435546875 471.0
440.2667541503906 18215.0
441.23016357421875 283.0
446.2023010253906 236.0
456.1882019042969 231.0
459.2325744628906 177.0
464.22625732421875 280.0
469.2165222167969 183.0
474.19677734375 699.0
477.2453918457031 322.0
487.2301330566406 258.0
491.2622985839844 209.0
496.22662353515625 197.0
501.24102783203125 1689.0
505.27386474609375 174.0
506.2174987792969 483.0
509.2626647949219 283.0
519.2489624023438 1864.0
523.2892456054688 565.0
533.2753295898438 2804.0
537.2916259765625 203.0
538.2679443359375 464.0
541.2969360351562 260.0
551.2811889648438 16353.0
565.2970581054688 7150.0
569.294677734375 3001.0
583.3092041015625 249945.0
601.321533203125 899897.0
602.5989379882812 3677.0
602.7677612304688 4471.0
603.16748046875 857.0
603.3053588867188 391.0
603.426025390625 188.0
603.543212890625 183.0
603.6949462890625 212.0
604.3295288085938 223.0
605.2682495117188 153.0
607.002685546875 195.0

Name: ranaconitine
Precursor_mz: 623.2921755
Cas: 1360-76-5
Adduct: [M+Na]+
Mz: 623.2939017
Comment: Major
Smiles: CCN1C[C@]2(OC(=O)c3ccccc3NC(C)=O)CC[C@H](OC)[C@@]34[C@@H]2C[C@@](O)([C@@H]13)[C@@]1(O)C[C@H](OC)C2C[C@@H]4[C@]1(O)[C@H]2OC
Formula: C32H44N2O9
Mix: Alkaloids-pos-mix25
Rt: [2.796]
Rt_apex: 2.795079296
Rt_start: 2.748983333
Rt_end: 2.962633333
Ms1_intensity: 35648
N_scnas: 32
Ms1_scan_range: [663, 670, 696]
Reci_snr: 0.002978377
Ms2_scan_idx: 1319
Pmz_offset: 0.001958609
Entropy: 1.0000001192092896
Num Peaks: 7
372.2132263183594 2872.0
386.2265625 93.0
390.2248840332031 173.0
404.2456359863281 1361.0
422.25146484375 6603.0
444.2331848144531 341.0
623.3056640625 2868.0

Name: Oxyberberine
Precursor_mz: 352.119001
Cas: 549-21-3
Adduct: [M+H]+
Mz: 352.1179491
Comment: Major
Smiles: COc1ccc2cc3n(c(=O)c2c1OC)CCc1cc2c(cc1-3)OCO2
Formula: C20H17NO5
Mix: Alkaloids-pos-mix25
Rt: [4.161]
Rt_apex: 4.16238028
Rt_start: 4.112883333
Rt_end: 5.419133333
Ms1_intensity: 4176859
N_scnas: 276
Ms1_scan_range: [900, 909, 1177]
Reci_snr: 0.000377124
Ms2_scan_idx: 2026
Pmz_offset: 0.002217819
Entropy: 0.9729423522949219
Num Peaks: 90
138.04986572265625 178.0
139.0525360107422 385.0
151.05528259277344 183.0
152.06076049804688 471.0
153.0730743408203 223.0
160.0365447998047 175.0
163.05447387695312 644.0
164.0469512939453 488.0
165.062255859375 455.0
167.07325744628906 224.0
178.0685272216797 453.0
180.0835723876953 884.0
187.06326293945312 303.0
188.04727172851562 203.0
189.06088256835938 518.0
190.06753540039062 3671.0
191.072998046875 730.0
192.08303833007812 491.0
193.05674743652344 532.0
194.064208984375 419.0
195.06448364257812 176.0
204.0803985595703 968.0
205.05386352539062 248.0
206.05987548828125 199.0
207.068359375 313.0
208.07725524902344 998.0
210.09226989746094 172.0
216.0738067626953 195.0
218.06283569335938 1796.0
219.07113647460938 406.0
220.07762145996094 1144.0
221.05091857910156 2475.0
222.05775451660156 1188.0
223.06895446777344 872.0
232.07647705078125 815.0
233.08236694335938 755.0
234.0947265625 376.0
235.0662384033203 698.0
236.06996154785156 4739.0
238.09030151367188 907.0
246.05738830566406 1783.0
247.06883239746094 642.0
248.07130432128906 8405.0
249.0514373779297 949.0
250.0468292236328 1260.0
251.064208984375 2074.0
252.0635986328125 254.0
260.0736389160156 438.0
261.08172607421875 872.0
262.0849304199219 2766.0
263.0968933105469 1087.0
264.0675048828125 7866.0
265.0787048339844 998.0
266.0804138183594 2644.0
273.07794189453125 239.0
274.0946350097656 194.0
276.0683898925781 49764.0
277.07659912109375 1063.0
278.0820007324219 998.0
279.05401611328125 126431.0
280.10760498046875 585.0
288.0667419433594 187.0
289.07037353515625 432.0
290.0829162597656 8713.0
291.0948486328125 1996.0
292.0629577636719 6580.0
293.075927734375 3006.0
294.0810241699219 670775.0
302.0909729003906 286.0
304.06256103515625 17078.0
305.0789489746094 739.0
306.077392578125 1902.0
307.0528564453125 3017.0
308.098876953125 135344.0
309.0972900390625 297.0
318.0807800292969 21485.0
319.08770751953125 55798.0
320.09375 34306.0
321.0711669921875 9516.0
322.0752868652344 1030470.0
323.0078125 2599.0
323.12384033203125 2951.0
334.0775146484375 5049.0
336.08892822265625 28984.0
337.10076904296875 599859.0
351.0422668457031 1554.0
352.123779296875 420719.0
353.0987854003906 475.0
353.3071594238281 458.0
353.5340270996094 303.0

Name: Oxyberberine
Precursor_mz: 374.0993622
Cas: 549-21-3
Adduct: [M+Na]+
Mz: 374.0998934
Comment: Major
Smiles: COc1ccc2cc3n(c(=O)c2c1OC)CCc1cc2c(cc1-3)OCO2
Formula: C20H17NO5
Mix: Alkaloids-pos-mix25
Rt: [4.161]
Rt_apex: 4.139825885
Rt_start: 4.112883333
Rt_end: 4.15905
Ms1_intensity: 258146
N_scnas: 7
Ms1_scan_range: [900, 905, 908]
Reci_snr: 0.002245356
Ms2_scan_idx: 2029
Pmz_offset: 0.001423487
Entropy: 0.9758679866790771
Num Peaks: 6
296.0818786621094 209.0
316.0591735839844 449.0
324.0831298828125 123.0
344.0570373535156 12642.0
359.07830810546875 5090.0
374.1083068847656 5020.0

Name: Oxyberberine
Precursor_mz: 374.099268
Cas: 549-21-3
Adduct: [M+Na]+
Mz: 374.0998934
Comment: Minor
Smiles: COc1ccc2cc3n(c(=O)c2c1OC)CCc1cc2c(cc1-3)OCO2
Formula: C20H17NO5
Mix: Alkaloids-pos-mix25
Rt: [4.161]
Rt_apex: 4.191904684
Rt_start: 4.15905
Rt_end: 4.469366667
Ms1_intensity: 177615
N_scnas: 52
Ms1_scan_range: [908, 913, 961]
Reci_snr: 0.004672922
Ms2_scan_idx: 2065
Pmz_offset: 0.001329321
Entropy: 1.0
Num Peaks: 5
316.0619812011719 297.0
330.07818603515625 93.0
344.057373046875 11522.0
359.0786437988281 4543.0
374.1086730957031 6704.0

Name: (-​)​-​Salutaridine
Precursor_mz: 328.1543696
Cas: 4090-18-0
Adduct: [M+H]+
Mz: 328.1543346
Comment: Major
Smiles: COC1=C[C@@]23CCN(C)[C@@H](Cc4ccc(OC)c(O)c42)C3=CC1=O
Formula: C19H21NO4
Mix: Alkaloids-pos-mix25
Rt: [2.093]
Rt_apex: 2.091514951
Rt_start: 2.049533333
Rt_end: 2.519333333
Ms1_intensity: 3578229
N_scnas: 74
Ms1_scan_range: [554, 560, 629]
Reci_snr: 0.000137872
Ms2_scan_idx: 892
Pmz_offset: 0.001537231
Entropy: 0.9972687363624573
Num Peaks: 127
44.04959487915039 19820.0
55.0177001953125 291.0
56.0488395690918 1909.0
58.06494903564453 59527.0
70.06492614746094 179.0
91.05242919921875 207.0
94.06446838378906 292.0
103.05389404296875 198.0
105.06664276123047 218.0
115.05329132080078 598.0
127.0528793334961 438.0
128.0609130859375 957.0
129.06814575195312 831.0
131.04464721679688 172.0
133.06692504882812 201.0
137.0576934814453 448.0
139.05615234375 2206.0
140.06246948242188 2778.0
141.07241821289062 1243.0
145.0893096923828 621.0
148.0762176513672 373.0
150.04656982421875 360.0
151.0538787841797 1628.0
152.06109619140625 2445.0
153.06993103027344 6004.0
154.07687377929688 750.0
155.0836181640625 2889.0
156.05331420898438 429.0
157.06472778320312 466.0
161.059326171875 750.0
162.0939483642578 1193.0
164.0634765625 589.0
165.07162475585938 24743.0
166.07925415039062 5498.0
167.05184936523438 1023.0
168.05821228027344 18726.0
169.06761169433594 1066.0
171.0807647705078 570.0
172.05499267578125 238.0
174.087646484375 315.0
176.06333923339844 3025.0
177.07217407226562 9515.0
178.07827758789062 1161.0
179.04966735839844 7462.0
180.05758666992188 894.0
181.0664520263672 6820.0
182.0724639892578 2698.0
183.0812530517578 18753.0
184.0528564453125 1959.0
185.06329345703125 955.0
187.07518005371094 461.0
189.0690155029297 643.0
190.08535766601562 2257.0
191.09474182128906 3566.0
192.10096740722656 9321.0
193.06692504882812 9519.0
194.07244873046875 6772.0
195.08255004882812 2708.0
196.0540008544922 10008.0
197.0593719482422 1191.0
198.0673370361328 778.0
199.07786560058594 4114.0
200.0869903564453 359.0
201.08274841308594 189.0
204.05477905273438 988.0
205.06838989257812 28548.0
206.07846069335938 1294.0
207.0465850830078 47082.0
208.110107421875 986.0
209.0586395263672 2376.0
210.0683135986328 3926.0
211.07838439941406 47619.0
212.0520477294922 2757.0
213.0545654296875 864.0
218.09854125976562 365.0
219.08200073242188 1060.0
220.0885009765625 227.0
221.0618438720703 10392.0
222.07078552246094 17860.0
223.04429626464844 4861.0
224.0472412109375 1611.0
225.09243774414062 3134.0
226.08731079101562 912.0
227.0738067626953 10727.0
228.08364868164062 763.0
233.0614471435547 9691.0
234.0694580078125 732.0
235.0753631591797 1268.0
236.1071319580078 2188.0
237.09144592285156 70919.0
238.0691680908203 1564.0
239.07275390625 26852.0
240.10020446777344 537.0
241.09498596191406 578.0
242.11366271972656 1381.0
243.10385131835938 2975.0
246.09754943847656 213.0
247.08261108398438 508.0
248.0806884765625 246.0
249.05862426757812 2328.0
250.0629119873047 4124.0
251.0736541748047 1068.0
252.0998077392578 1058.0
253.08786010742188 3084.0
254.0957489013672 692.0
255.06753540039062 29071.0
257.1134033203125 519.0
264.1000061035156 432.0
265.0929870605469 14451.0
266.0855712890625 1062.0
267.0685119628906 12589.0
268.13372802734375 3418.0
269.0859069824219 282.0
270.0905456542969 12533.0
271.1016540527344 3129.0
278.1153564453125 166.0
280.103515625 332.0
281.1072998046875 1117.0
282.0916748046875 8066.0
284.1270751953125 528.0
285.1143493652344 10416.0
296.13079833984375 2338.0
297.114501953125 4031.0
300.1556396484375 523.0
313.1351623535156 218.0
327.14288330078125 186.0
328.1589660644531 135573.0

Name: (-​)​-​Salutaridine
Precursor_mz: 350.1341518
Cas: 4090-18-0
Adduct: [M+Na]+
Mz: 350.1362789
Comment: Major
Smiles: COC1=C[C@@]23CCN(C)[C@@H](Cc4ccc(OC)c(O)c42)C3=CC1=O
Formula: C19H21NO4
Mix: Alkaloids-pos-mix25
Rt: [2.093]
Rt_apex: 2.114961571
Rt_start: 2.036533333
Rt_end: 2.512833333
Ms1_intensity: 52397
N_scnas: 75
Ms1_scan_range: [552, 564, 628]
Reci_snr: 0.002086844
Ms2_scan_idx: 879
Pmz_offset: 0.000165738
Entropy: 0.8449417948722839
Num Peaks: 4
304.09735107421875 31.0
319.1007995605469 93.0
335.12799072265625 31.0
350.1363525390625 590.0

Name: TriacetonaMine
Precursor_mz: 156.1362432
Cas: 826-36-8
Adduct: [M+H]+
Mz: 156.1382906
Comment: Major
Smiles: CC1(C)CC(=O)CC(C)(C)N1
Formula: C9H17NO
Mix: Alkaloids-pos-mix25
Rt: [0.541, 2.553]
Rt_apex: 0.540625863
Rt_start: 0.455933333
Rt_end: 0.58915
Ms1_intensity: 2661
N_scnas: 30
Ms1_scan_range: [129, 146, 160]
Reci_snr: 0.001120536
Ms2_scan_idx: 229
Pmz_offset: 0.000337055
Entropy: 0.9740657806396484
Num Peaks: 9
41.03857421875 19.0
42.031620025634766 19.0
43.041141510009766 25.0
53.039337158203125 12.0
55.0531120300293 25.0
56.04779815673828 6.0
58.064964294433594 443.0
83.0505142211914 19.0
156.13751220703125 6.0

Name: Tropine
Precursor_mz: 142.1220451
Cas: 120-29-6
Adduct: [M+H]+
Mz: 142.1226406
Comment: Major
Smiles: CN1[C@H]2CC[C@@H]1C[C@H](O)C2
Formula: C8H15NO
Mix: Alkaloids-pos-mix25
Rt: [0.325]
Rt_apex: 0.32490539
Rt_start: 0.214066667
Rt_end: 0.827633333
Ms1_intensity: 2537197
N_scnas: 151
Ms1_scan_range: [82, 104, 234]
Reci_snr: 6.19e-05
Ms2_scan_idx: 139
Pmz_offset: 0.001845625
Entropy: 0.997996985912323
Num Peaks: 43
41.0394401550293 10210.0
42.03340530395508 10867.0
43.04294967651367 2816.0
44.050498962402344 3756.0
45.03673553466797 123.0
50.01451873779297 558.0
51.02293395996094 3607.0
53.03929138183594 706.0
54.035301208496094 92.0
55.056190490722656 5085.0
56.04985427856445 10540.0
57.057708740234375 17034.0
58.06598663330078 18158.0
60.04268264770508 295.0
63.02686309814453 93.0
65.03916931152344 2524.0
66.04804992675781 123.0
67.05435943603516 14540.0
68.05091094970703 5235.0
69.07230377197266 967.0
70.06488800048828 1689.0
77.03992462158203 17051.0
78.04708099365234 217.0
79.05577850341797 585.0
80.04961395263672 595.0
81.06986999511719 943.0
82.06607055664062 2231.0
83.07475280761719 2224.0
84.08316040039062 123.0
85.06916809082031 205.0
86.06092834472656 154.0
94.0657730102539 1145.0
95.08524322509766 884.0
96.07994842529297 1468.0
98.10016632080078 34361.0
100.0782241821289 181.0
108.07988739013672 573.0
109.08744049072266 278.0
111.08106231689453 1303.0
124.11356353759766 2457.0
141.68804931640625 395.0
142.12437438964844 107906.0
142.74072265625 93.0

Name: Dihydrosanguinarine
Precursor_mz: 334.1075419
Cas: 3606-45-9
Adduct: [M+H]+
Mz: 334.1073844
Comment: Major
Smiles: CN1Cc2c(ccc3c2OCO3)-c2ccc3cc4c(cc3c21)OCO4
Formula: C20H15NO4
Mix: Alkaloids-pos-mix26
Rt: [2.209]
Rt_apex: 5.505691611
Rt_start: 5.399216667
Rt_end: 5.796316667
Ms1_intensity: 260475
N_scnas: 97
Ms1_scan_range: [1253, 1274, 1351]
Reci_snr: 0.00110144
Ms2_scan_idx: 2338
Pmz_offset: 0.000895695
Entropy: 0.9988762140274048
Num Peaks: 54
160.04002380371094 165.0
175.05506896972656 113.0
176.06101989746094 177.0
189.06851196289062 433.0
190.0790557861328 87.0
191.07872009277344 100.0
201.06231689453125 253.0
202.0724639892578 835.0
203.07313537597656 556.0
204.08230590820312 760.0
205.08995056152344 193.0
215.0743865966797 88.0
216.0819549560547 254.0
217.09188842773438 517.0
218.09588623046875 1580.0
219.10427856445312 186.0
228.0788116455078 100.0
230.06472778320312 499.0
231.0747833251953 211.0
232.07423400878906 2830.0
233.08010864257812 570.0
234.09246826171875 365.0
244.073486328125 123.0
245.0830535888672 152.0
246.09030151367188 1766.0
247.09519958496094 383.0
248.11318969726562 217.0
259.076416015625 513.0
260.0757751464844 5517.0
261.08160400390625 4290.0
262.0825500488281 841.0
263.0967712402344 109.0
272.0722961425781 108.0
274.0666198730469 1023.0
275.094482421875 775.0
276.1055603027344 5856.0
277.1068420410156 130.0
287.0980224609375 233.0
288.0737609863281 2920.0
289.07025146484375 1359.0
290.0827941894531 8984.0
291.0875244140625 125.0
302.0835266113281 136.0
303.0746154785156 439.0
304.091796875 5760.0
305.10333251953125 551.0
316.0590515136719 1443.0
317.08026123046875 875.0
318.08062744140625 134963.0
319.0875549316406 40961.0
331.0830078125 206.0
332.0924072265625 712.0
333.0982360839844 3448.0
334.1081237792969 13353.0

Name: Sapropterin dihydrochloride
Precursor_mz: 242.1243701
Cas: 69056-38-8
Adduct: [M+H]+
Mz: 242.1247658
Comment: Major
Smiles: C[C@H](O)[C@H](O)[C@H]1CNc2nc(N)[nH]c(=O)c2N1
Formula: C9H15N5O3
Mix: Alkaloids-pos-mix26
Rt: [0.53, 1.216, 2.217]
Rt_apex: 1.219908605
Rt_start: 1.13565
Rt_end: 1.289383333
Ms1_intensity: 1810
N_scnas: 37
Ms1_scan_range: [331, 352, 369]
Reci_snr: 0.034056546
Ms2_scan_idx: 527
Pmz_offset: 0.000174431
Entropy: 1.0
Num Peaks: 6
84.05477142333984 72.0
94.04119110107422 52.0
112.04740142822266 102.0
126.06596374511719 35.0
200.1065216064453 381.0
225.09629821777344 67.0

Name: Chelidonine hydrochloride
Precursor_mz: 354.134537
Cas: 4312-31-6
Adduct: [M+H]+
Mz: 354.1335992
Comment: Major
Smiles: CN1Cc2c(ccc3c2OCO3)[C@H]2[C@@H](O)Cc3cc4c(cc3[C@H]21)OCO4
Formula: C20H19NO5
Mix: Alkaloids-pos-mix26
Rt: [2.617]
Rt_apex: 2.612304199
Rt_start: 2.56595
Rt_end: 3.739833333
Ms1_intensity: 3978032
N_scnas: 239
Ms1_scan_range: [619, 626, 859]
Reci_snr: 0.000186588
Ms2_scan_idx: 1174
Pmz_offset: 0.002644316
Entropy: 0.9906801581382751
Num Peaks: 143
43.018959045410156 99.0
44.05044174194336 391.0
51.02086639404297 180.0
55.01655578613281 287.0
65.03681945800781 341.0
77.03736114501953 3080.0
79.05567932128906 3067.0
89.03482818603516 315.0
91.05359649658203 822.0
93.0313720703125 728.0
102.04611206054688 182.0
103.05369567871094 5458.0
105.03192138671875 1135.0
107.05073547363281 475.0
115.05307006835938 3338.0
117.05620574951172 354.0
118.06501770019531 3775.0
119.04906463623047 254.0
121.02941131591797 236.0
123.043212890625 447.0
130.06466674804688 1100.0
131.04920959472656 7895.0
132.07778930664062 267.0
133.02781677246094 1278.0
135.0457000732422 102922.0
136.0521697998047 97.0
139.05422973632812 164.0
143.05087280273438 6223.0
145.05691528320312 129.0
146.05923461914062 3255.0
147.04457092285156 998.0
148.05030822753906 1372.0
149.05947875976562 2811.0
150.04800415039062 137.0
151.03807067871094 993.0
152.06080627441406 459.0
153.06790161132812 219.0
158.05792236328125 904.0
159.0439453125 8418.0
160.07740783691406 2269.0
161.0625762939453 19650.0
162.05076599121094 615.0
163.04017639160156 67586.0
164.0631561279297 412.0
165.0695037841797 1238.0
166.0789337158203 386.0
167.08963012695312 170.0
171.04739379882812 250.0
172.06202697753906 388.0
173.0630340576172 7730.0
175.04034423828125 2474.0
176.07044982910156 10296.0
177.06997680664062 3811.0
178.07794189453125 6018.0
179.08688354492188 17409.0
181.06988525390625 230.0
185.06292724609375 183.0
186.05699157714844 563.0
187.03836059570312 3401.0
188.0723419189453 43185.0
189.072509765625 388262.0
190.07919311523438 4551.0
191.0866241455078 9479.0
192.05780029296875 555.0
193.06265258789062 336.0
194.0701141357422 284.0
195.0802001953125 201.0
197.05702209472656 104.0
200.060791015625 312.0
201.07240295410156 2705.0
202.07858276367188 721.0
203.0892791748047 111.0
204.06039428710938 187.0
205.06597900390625 8487.0
206.07403564453125 696.0
207.08456420898438 24035.0
208.08946228027344 134.0
209.06027221679688 1325.0
216.05735778808594 186.0
217.06723022460938 224444.0
218.0753173828125 3022.0
219.0836639404297 13429.0
220.05059814453125 320.0
221.059326171875 418.0
222.06825256347656 2794.0
223.07530212402344 853.0
225.04989624023438 148.0
229.06979370117188 312.0
231.0813446044922 188.0
232.05514526367188 429.0
233.0609893798828 1878.0
234.07330322265625 417.0
235.07705688476562 30158.0
236.08509826660156 328.0
237.09530639648438 36088.0
238.06869506835938 156.0
239.0679473876953 100.0
245.06126403808594 26262.0
246.06845092773438 8850.0
247.0777130126953 737527.0
248.0713653564453 534.0
249.0935821533203 2398.0
250.0624237060547 890.0
251.0687255859375 941.0
252.0814971923828 86.0
259.07659912109375 343.0
262.0645446777344 295.0
263.07421875 6530.0
264.08123779296875 387.0
265.0879211425781 46289.0
266.0552978515625 589.0
267.0657043457031 1121.0
273.0548400878906 437.0
274.0621643066406 493.0
275.0736999511719 969913.0
276.03582763671875 1312.0
277.0906982421875 2480.0
278.05865478515625 1615.0
279.0657958984375 1241.0
280.0794677734375 661.0
281.0855712890625 380.0
287.0744323730469 266.0
289.0752258300781 124.0
290.0638732910156 256.0
292.0774230957031 438.0
293.08319091796875 21450.0
295.0999450683594 49157.0
303.0650329589844 244.0
305.08392333984375 156940.0
306.1167297363281 610.0
307.0971984863281 2168.0
308.0816955566406 195.0
320.0988464355469 601.0
321.10394287109375 394.0
322.0929870605469 318.0
323.0961608886719 149016.0
332.100341796875 180.0
334.1134948730469 1070.0
335.0992431640625 108.0
336.1275939941406 40437.0
353.0566711425781 660.0
354.1386413574219 256201.0
355.3518371582031 98.0

Name: Hydroquinine
Precursor_mz: 327.207118
Cas: 522-66-7
Adduct: [M+H]+
Mz: 327.2067045
Comment: Major
Smiles: CCC1CN2CCC1CC2C(O)c1ccnc2ccc(OC)cc12
Formula: C20H26N2O2
Mix: Alkaloids-pos-mix26
Rt: [2.209]
Rt_apex: 2.209488334
Rt_start: 2.080816667
Rt_end: 2.4078
Ms1_intensity: 1767761
N_scnas: 51
Ms1_scan_range: [537, 558, 589]
Reci_snr: 0.001659193
Ms2_scan_idx: 966
Pmz_offset: 0.002049893
Entropy: 0.9932637214660645
Num Peaks: 162
41.03852462768555 1196.0
42.033390045166016 867.0
44.0495491027832 1547.0
53.039268493652344 213.0
55.05512619018555 21854.0
56.04983139038086 1036.0
58.06489181518555 315.0
67.05548095703125 1602.0
68.04740905761719 556.0
69.07110595703125 1102.0
70.06603240966797 546.0
77.03742980957031 381.0
79.05325317382812 716.0
80.05083465576172 1181.0
81.07109832763672 618.0
82.06603240966797 7357.0
83.0875015258789 2569.0
84.08440399169922 1960.0
89.03490447998047 260.0
91.05367279052734 1432.0
93.07070922851562 1230.0
94.06436920166016 1283.0
95.0865707397461 1335.0
96.08128356933594 956.0
98.09734344482422 1872.0
102.04761505126953 232.0
106.0643081665039 192.0
107.08422088623047 653.0
108.081298828125 3576.0
109.10350799560547 454.0
110.09961700439453 13208.0
111.07805633544922 471.0
112.11134338378906 1351.0
115.05618286132812 848.0
116.05181884765625 227.0
117.05782318115234 4834.0
118.06359100341797 275.0
119.08285522460938 213.0
120.07573699951172 219.0
121.09127044677734 215.0
122.1017837524414 1032.0
123.10247802734375 364.0
124.1135025024414 2274.0
126.13063049316406 2376.0
129.05844116210938 555.0
130.06637573242188 524.0
131.07342529296875 722.0
134.09347534179688 284.0
136.11285400390625 3111.0
137.12326049804688 285.0
138.12918090820312 2952.0
140.14370727539062 1361.0
141.05392456054688 401.0
142.06910705566406 875.0
143.07281494140625 2077.0
144.0817413330078 310.0
145.05027770996094 2814.0
146.06105041503906 601.0
147.06512451171875 221.0
148.11361694335938 289.0
150.12548828125 534.0
153.05587768554688 179.0
154.06625366210938 3158.0
155.07470703125 2937.0
156.08294677734375 562.0
157.05224609375 577.0
158.0580596923828 1849.0
159.06886291503906 895.0
160.07577514648438 32174.0
162.09378051757812 2343.0
166.06642150878906 508.0
167.07525634765625 3481.0
168.13809204101562 4719.0
169.05099487304688 2134.0
170.0633544921875 1371.0
171.06773376464844 1214.0
172.07688903808594 19644.0
173.0853271484375 3818.0
174.093017578125 2816.0
176.111572265625 343.0
180.08187866210938 701.0
181.09458923339844 521.0
182.0609130859375 1075.0
183.06776428222656 2836.0
184.0792999267578 11633.0
185.08599853515625 1237.0
186.09542846679688 14643.0
187.0999298095703 452.0
188.0744171142578 1171.0
189.07846069335938 2300.0
190.09095764160156 173.0
192.07936096191406 195.0
193.09205627441406 254.0
194.09178161621094 346.0
195.06861877441406 577.0
196.081298828125 1748.0
197.08871459960938 1447.0
198.09278869628906 9868.0
199.08555603027344 1629.0
200.110595703125 1355.0
202.08673095703125 1721.0
204.08262634277344 387.0
206.10040283203125 351.0
207.10089111328125 249.0
208.0977325439453 446.0
209.082763671875 427.0
210.09249877929688 3566.0
211.08834838867188 1548.0
212.1029052734375 1450.0
213.10350036621094 1317.0
214.08387756347656 873.0
215.1158905029297 266.0
218.09622192382812 191.0
219.0963134765625 250.0
220.08201599121094 183.0
221.1074981689453 512.0
222.09353637695312 792.0
223.09645080566406 665.0
224.11001586914062 1548.0
225.10693359375 1316.0
226.1250457763672 2490.0
227.1243133544922 6298.0
228.1385040283203 508.0
234.09283447265625 339.0
235.0880126953125 210.0
236.10902404785156 1613.0
237.1084747314453 1200.0
238.12303161621094 2353.0
239.12240600585938 994.0
240.1434326171875 723.0
241.1317596435547 282.0
242.1636199951172 191.0
244.141845703125 189.0
248.10694885253906 188.0
249.1026611328125 366.0
250.13143920898438 731.0
251.12452697753906 4212.0
252.1284942626953 1667.0
253.13670349121094 4229.0
254.15139770507812 783.0
264.1407470703125 491.0
265.1429748535156 1184.0
266.16082763671875 3272.0
267.1622619628906 369.0
268.1724853515625 734.0
270.1917419433594 247.0
277.1750183105469 308.0
278.1478271484375 254.0
279.1551208496094 849.0
280.176025390625 2681.0
281.1658020019531 5373.0
282.195068359375 490.0
292.1736145019531 461.0
293.1699523925781 206.0
294.17999267578125 330.0
297.1940002441406 262.0
298.1819152832031 630.0
299.219970703125 1239.0
307.1786193847656 298.0
309.19879150390625 30808.0
326.20404052734375 280.0
327.2110595703125 133133.0

Name: Hydroquinine
Precursor_mz: 327.2057216
Cas: 522-66-7
Adduct: [M+H]+
Mz: 327.2067045
Comment: isomer
Smiles: CCC1CN2CCC1CC2C(O)c1ccnc2ccc(OC)cc12
Formula: C20H26N2O2
Mix: Alkaloids-pos-mix26
Rt: [2.209]
Rt_apex: 2.473164998
Rt_start: 2.4078
Rt_end: 2.63295
Ms1_intensity: 24614
N_scnas: 39
Ms1_scan_range: [589, 601, 629]
Reci_snr: 0.183717039
Ms2_scan_idx: 1087
Pmz_offset: 0.000653493
Entropy: 1.0000001192092896
Num Peaks: 16
55.055084228515625 399.0
82.06088256835938 264.0
110.09363555908203 382.0
160.07565307617188 715.0
172.07492065429688 484.0
184.08297729492188 230.0
186.08953857421875 596.0
198.09461975097656 216.0
213.0992431640625 92.0
224.10354614257812 92.0
227.1199188232422 238.0
253.13650512695312 206.0
266.1514587402344 92.0
281.16796875 225.0
309.1985778808594 778.0
327.2108154296875 2917.0

Name: Rubitecan
Precursor_mz: 394.1041377
Cas: 91421-42-0
Adduct: [M+H]+
Mz: 394.1033617
Comment: Major
Smiles: CC[C@@]1(O)C(=O)OCc2c1cc1n(c2=O)Cc2cc3c([N+](=O)[O-])cccc3nc2-1
Formula: C20H15N3O6
Mix: Alkaloids-pos-mix26
Rt: [3.314]
Rt_apex: 3.314186251
Rt_start: 3.1867
Rt_end: 3.600683333
Ms1_intensity: 877416
N_scnas: 79
Ms1_scan_range: [747, 775, 827]
Reci_snr: 0.000120212
Ms2_scan_idx: 1485
Pmz_offset: 0.001089651
Entropy: 0.8367050886154175
Num Peaks: 94
57.03322982788086 1053.0
140.04885864257812 307.0
146.06256103515625 438.0
167.05508422851562 430.0
168.06692504882812 332.0
177.05494689941406 267.0
179.0736541748047 282.0
180.07223510742188 692.0
181.07925415039062 265.0
182.08338928222656 338.0
189.0608367919922 234.0
190.0675048828125 508.0
191.0729522705078 423.0
192.07911682128906 570.0
193.09181213378906 221.0
203.06919860839844 434.0
204.07032775878906 682.0
205.08396911621094 1222.0
206.09005737304688 1012.0
207.0885009765625 523.0
208.08937072753906 250.0
209.0703125 173.0
210.08206176757812 292.0
216.0717010498047 894.0
217.07540893554688 2163.0
218.08558654785156 3770.0
219.0897979736328 3296.0
220.10047912597656 1498.0
221.08218383789062 198.0
222.0681610107422 327.0
230.08607482910156 312.0
231.09405517578125 384.0
232.07000732421875 200.0
233.0716094970703 930.0
234.07965087890625 1393.0
235.08555603027344 3891.0
236.0914764404297 969.0
237.09088134765625 275.0
238.07725524902344 2463.0
243.09451293945312 246.0
244.0713653564453 251.0
245.07432556152344 3411.0
246.079345703125 2457.0
247.09085083007812 11728.0
248.09556579589844 5644.0
250.07562255859375 352.0
258.1151428222656 937.0
259.0923156738281 322.0
260.0962219238281 190.0
261.10662841796875 367.0
262.0803527832031 483.0
263.0809326171875 2827.0
264.0765686035156 2468.0
265.0923767089844 2567.0
266.09637451171875 507.0
271.0940856933594 275.0
273.0663146972656 423.0
274.1178283691406 1076.0
276.13128662109375 1301.0
279.065673828125 496.0
280.0699462890625 798.0
281.09014892578125 183.0
286.1097717285156 1205.0
288.08099365234375 240.0
289.09893798828125 225.0
290.1043701171875 734.0
291.0660400390625 23063.0
292.0724792480469 4659.0
293.0806579589844 15875.0
294.0833435058594 1536.0
302.10797119140625 1574.0
307.08721923828125 225.0
308.07171630859375 310.0
309.07257080078125 278.0
318.0857238769531 258.0
319.05755615234375 3168.0
320.1087341308594 3273.0
321.0786437988281 209.0
322.08026123046875 630.0
330.0905456542969 403.0
332.0976257324219 432.0
334.0517883300781 247.0
335.0631408691406 223.0
336.07342529296875 1654.0
337.0723571777344 1455.0
338.07794189453125 477.0
348.1139831542969 8338.0
350.1172790527344 35441.0
364.1084289550781 307.0
365.0677185058594 11320.0
366.11419677734375 340.0
376.10321044921875 232.0
392.8907775878906 168.0
394.1072998046875 86150.0

Name: Rubitecan
Precursor_mz: 416.0803415
Cas: 91421-42-0
Adduct: [M+Na]+
Mz: 416.0853059
Comment: Major
Smiles: CC[C@@]1(O)C(=O)OCc2c1cc1n(c2=O)Cc2cc3c([N+](=O)[O-])cccc3nc2-1
Formula: C20H15N3O6
Mix: Alkaloids-pos-mix26
Rt: [3.314]
Rt_apex: 3.316939713
Rt_start: 3.2624
Rt_end: 3.4079
Ms1_intensity: 2463
N_scnas: 24
Ms1_scan_range: [764, 775, 789]
Reci_snr: 0.047569935
Ms2_scan_idx: 1480
Pmz_offset: 0.000461115
Entropy: 1.0
Num Peaks: 1
46.06618881225586 93.0

Name: (±) Anabasine
Precursor_mz: 163.1226218
Cas: 13078-04-1
Adduct: [M+H]+
Mz: 163.1229749
Comment: Major
Smiles: c1cncc(C2CCCCN2)c1
Formula: C10H14N2
Mix: Alkaloids-pos-mix26
Rt: [0.371, 0.529]
Rt_apex: 0.527354765
Rt_start: 0.43545
Rt_end: 0.934133333
Ms1_intensity: 1656996
N_scnas: 139
Ms1_scan_range: [122, 142, 262]
Reci_snr: 0.000156325
Ms2_scan_idx: 264
Pmz_offset: 0.00178096
Entropy: 0.9993417263031006
Num Peaks: 54
40.03242111206055 93.0
41.037559509277344 1711.0
42.033321380615234 619.0
50.01540756225586 286.0
51.0228271484375 1546.0
52.032196044921875 409.0
53.037139892578125 3752.0
54.0320930480957 292.0
55.051910400390625 610.0
56.04868698120117 4156.0
57.06924819946289 93.0
64.02667999267578 123.0
65.03903198242188 18947.0
66.0456314086914 916.0
67.0542221069336 1370.0
68.04960632324219 123.0
69.05583190917969 211.0
70.06474304199219 517.0
77.03730010986328 4049.0
78.03451538085938 3720.0
79.0418930053711 3364.0
80.04944610595703 61604.0
82.06462860107422 681.0
84.08040618896484 15485.0
89.03872680664062 8704.0
90.04530334472656 9872.0
91.05486297607422 48881.0
92.04985046386719 54980.0
93.0583724975586 20653.0
94.0655746459961 20646.0
102.04744720458984 371.0
103.0536117553711 2704.0
104.05182647705078 1152.0
105.06779479980469 442.0
106.0655746459961 7398.0
107.07097625732422 527.0
116.0486068725586 1064.0
117.05763244628906 91504.0
118.06644439697266 74841.0
119.07193756103516 751.0
120.08015441894531 23973.0
127.05094909667969 551.0
128.06373596191406 1315.0
129.0693817138672 1788.0
131.07321166992188 12066.0
132.08090209960938 2856.0
133.0859832763672 123.0
134.09812927246094 6936.0
142.06887817382812 317.0
143.07090759277344 1107.0
144.07981872558594 7197.0
145.08721923828125 439.0
146.09642028808594 12783.0
163.1224822998047 19952.0

Name: (±) Anabasine
Precursor_mz: 163.1209916
Cas: 13078-04-1
Adduct: [M+H]+
Mz: 163.1229749
Comment: isomer
Smiles: c1cncc(C2CCCCN2)c1
Formula: C10H14N2
Mix: Alkaloids-pos-mix26
Rt: [0.371, 0.529]
Rt_apex: 9.48464412
Rt_start: 9.433366667
Rt_end: 9.563466667
Ms1_intensity: 4011
N_scnas: 16
Ms1_scan_range: [2199, 2206, 2216]
Reci_snr: 1.38e-14
Ms2_scan_idx: 3631
Pmz_offset: 0.000150779
Entropy: 0.9576704502105713
Num Peaks: 16
53.04212951660156 41.0
56.04961395263672 51.0
65.0400161743164 51.0
77.03836059570312 41.0
80.04550170898438 224.0
84.0802230834961 111.0
89.03852844238281 31.0
90.04776763916016 31.0
91.05064392089844 109.0
92.04964447021484 94.0
93.05815887451172 91.0
117.057373046875 239.0
118.06465911865234 181.0
120.07988739013672 59.0
134.10107421875 31.0
163.12391662597656 41.0

Name: (±) Anabasine
Precursor_mz: 163.1220577
Cas: 13078-04-1
Adduct: [M+H]+
Mz: 163.1229749
Comment: isomer
Smiles: c1cncc(C2CCCCN2)c1
Formula: C10H14N2
Mix: Alkaloids-pos-mix26
Rt: [0.371, 0.529]
Rt_apex: 0.369646791
Rt_start: 0.331783333
Rt_end: 0.43545
Ms1_intensity: 513621
N_scnas: 18
Ms1_scan_range: [103, 109, 122]
Reci_snr: 0.000300704
Ms2_scan_idx: 193
Pmz_offset: 0.001216941
Entropy: 0.9999999403953552
Num Peaks: 34
41.03932189941406 80.0
51.02278518676758 147.0
53.03913497924805 231.0
56.04969024658203 252.0
65.037841796875 1071.0
66.04557800292969 43.0
67.05301666259766 81.0
77.03846740722656 176.0
78.03321075439453 168.0
79.04182434082031 190.0
80.0481185913086 2356.0
84.08161926269531 849.0
89.03732299804688 436.0
90.04788970947266 512.0
91.0547866821289 1940.0
92.04977416992188 2204.0
93.05693817138672 1206.0
94.06685638427734 994.0
103.0563735961914 220.0
104.04887390136719 76.0
106.06259155273438 393.0
117.05601501464844 3321.0
118.0648193359375 2925.0
119.0733642578125 69.0
120.08004760742188 1305.0
128.06362915039062 191.0
129.0708770751953 71.0
131.07470703125 587.0
132.0791778564453 235.0
134.0963897705078 351.0
143.06910705566406 82.0
144.07969665527344 443.0
146.0946044921875 722.0
163.12234497070312 1190.0

Name: Tryptanthrin
Precursor_mz: 249.065355
Cas: 13220-57-0
Adduct: [M+H]+
Mz: 249.065854
Comment: Major
Smiles: O=C1c2ccccc2-n2c1nc1ccccc1c2=O
Formula: C15H8N2O2
Mix: Alkaloids-pos-mix26
Rt: [3.768]
Rt_apex: 3.768970441
Rt_start: 3.421733333
Rt_end: 4.926133333
Ms1_intensity: 2004541
N_scnas: 335
Ms1_scan_range: [791, 863, 1127]
Reci_snr: 0.000213384
Ms2_scan_idx: 1666
Pmz_offset: 0.00061848
Entropy: 1.0
Num Peaks: 11
65.03904724121094 77.0
77.0385513305664 143.0
90.0360107421875 62.0
93.03131866455078 62.0
102.0318832397461 262.0
121.02780151367188 77.0
130.02780151367188 1236.0
146.02352905273438 77.0
192.0674285888672 138.0
221.0717315673828 391.0
249.07130432128906 976.0

Name: Guvacine hydrochloride
Precursor_mz: 128.0699305
Cas: 6027-91-4
Adduct: [M+H]+
Mz: 128.070605
Comment: Major
Smiles: O=C(O)C1=CCCNC1
Formula: C6H9NO2
Mix: Alkaloids-pos-mix26
Rt: [0.296]
Rt_apex: 0.295488661
Rt_start: 0.256816667
Rt_end: 0.444933333
Ms1_intensity: 187039
N_scnas: 31
Ms1_scan_range: [92, 98, 124]
Reci_snr: 0.001197
Ms2_scan_idx: 139
Pmz_offset: 0.0
Entropy: 1.0
Num Peaks: 1
53.040157318115234 93.0

Name: Fingolimod
Precursor_mz: 308.2589809
Cas: 162359-55-9
Adduct: [M+H]+
Mz: 308.2584058
Comment: Major
Smiles: CCCCCCCCc1ccc(CCC(N)(CO)CO)cc1
Formula: C19H33NO2
Mix: Alkaloids-pos-mix27
Rt: [4.486]
Rt_apex: 4.481812473
Rt_start: 4.418966667
Rt_end: 4.943666667
Ms1_intensity: 2100731
N_scnas: 95
Ms1_scan_range: [850, 859, 946]
Reci_snr: 7.12e-05
Ms2_scan_idx: 2563
Pmz_offset: 0.000859427
Entropy: 0.996554434299469
Num Peaks: 53
41.0392951965332 12024.0
43.05476379394531 26117.0
57.07128143310547 28864.0
65.03780364990234 241.0
67.0564193725586 123.0
69.0697250366211 1208.0
71.08677673339844 11092.0
77.0396499633789 683.0
79.0567398071289 1562.0
83.0501480102539 602.0
85.10511016845703 174.0
91.05472564697266 27831.0
93.06906127929688 260.0
103.05345153808594 1621.0
104.06311798095703 219.0
105.07195281982422 106037.0
115.05280303955078 3267.0
116.0620346069336 518.0
117.06959533691406 8395.0
119.08554077148438 3698.0
127.05233764648438 2274.0
128.06353759765625 14930.0
129.07078552246094 11985.0
130.08197021484375 299.0
131.08746337890625 14172.0
133.1019744873047 541.0
141.07180786132812 3054.0
142.0786895751953 6338.0
143.08578491210938 26116.0
144.09645080566406 123.0
145.10220336914062 4985.0
147.11741638183594 207.0
155.08120727539062 601.0
156.0964813232422 1482.0
157.10450744628906 15961.0
159.1143798828125 389.0
161.10316467285156 497.0
169.10520935058594 123.0
171.1185760498047 827.0
175.1142120361328 207.0
185.14077758789062 388.0
199.15028381347656 329.0
201.16348266601562 420.0
203.1828155517578 3077.0
217.19906616210938 286.0
229.19883728027344 1680.0
231.17681884765625 245.0
243.21441650390625 4276.0
255.21438598632812 37215.0
272.238525390625 435.0
273.225830078125 375.0
290.2544250488281 154.0
308.2632751464844 12010.0

Name: Fingolimod
Precursor_mz: 330.2402306
Cas: 162359-55-9
Adduct: [M+Na]+
Mz: 330.24035
Comment: Major
Smiles: CCCCCCCCc1ccc(CCC(N)(CO)CO)cc1
Formula: C19H33NO2
Mix: Alkaloids-pos-mix27
Rt: [4.486]
Rt_apex: 4.484097134
Rt_start: 4.4453
Rt_end: 4.626966667
Ms1_intensity: 85421
N_scnas: 28
Ms1_scan_range: [854, 860, 883]
Reci_snr: 0.002785667
Ms2_scan_idx: 2545
Pmz_offset: 0.000359847
Entropy: 0.8676878213882446
Num Peaks: 3
91.05612182617188 62.0
98.98727416992188 93.0
330.2507629394531 920.0

Name: Quinidine
Precursor_mz: 325.1912274
Cas: 56-54-2
Adduct: [M+H]+
Mz: 325.1910545
Comment: Major
Smiles: C=C[C@H]1CN2CC[C@H]1C[C@@H]2[C@@H](O)c1ccnc2ccc(OC)cc12
Formula: C20H24N2O2
Mix: Alkaloids-pos-mix27
Rt: [2.017]
Rt_apex: 2.008641868
Rt_start: 1.948933333
Rt_end: 2.162133333
Ms1_intensity: 1275745
N_scnas: 33
Ms1_scan_range: [470, 481, 504]
Reci_snr: 0.000643954
Ms2_scan_idx: 911
Pmz_offset: 0.001708811
Entropy: 0.996415376663208
Num Peaks: 156
41.03841781616211 1191.0
42.0341911315918 591.0
44.049434661865234 2848.0
53.03811264038086 1141.0
55.0539436340332 1538.0
56.049686431884766 361.0
65.04010009765625 503.0
67.05530548095703 2486.0
68.04839324951172 918.0
69.05926513671875 246.0
70.0646743774414 668.0
77.03845977783203 1657.0
79.05429077148438 12512.0
80.05062866210938 2947.0
81.06962585449219 17159.0
82.06709289550781 3941.0
84.07904052734375 379.0
89.04129028320312 193.0
91.05343627929688 2328.0
93.07046508789062 1038.0
94.06549072265625 1430.0
95.07127380371094 1615.0
96.0810317993164 1151.0
103.05066680908203 190.0
105.07201385498047 1143.0
106.06403350830078 955.0
107.08394622802734 675.0
108.07955932617188 3018.0
109.08710479736328 237.0
110.09490966796875 3212.0
115.05287170410156 1172.0
117.0575180053711 3946.0
118.06328582763672 304.0
120.08158111572266 999.0
121.08941650390625 194.0
122.09681701660156 2218.0
124.11161804199219 1059.0
129.0565185546875 466.0
130.0660400390625 527.0
131.07469177246094 740.0
132.08078002929688 277.0
134.09637451171875 3030.0
135.10092163085938 461.0
136.1125030517578 2691.0
138.12716674804688 1458.0
141.05690002441406 574.0
142.063720703125 881.0
143.07412719726562 1846.0
144.0813751220703 542.0
145.05496215820312 2017.0
146.0606689453125 317.0
148.10983276367188 266.0
154.06236267089844 2306.0
155.0760498046875 1858.0
156.07728576660156 463.0
157.05360412597656 734.0
158.06118774414062 2500.0
159.06491088867188 1308.0
160.0753631591797 33270.0
162.09335327148438 966.0
166.12387084960938 3550.0
167.07119750976562 1540.0
168.07579040527344 641.0
169.05056762695312 1562.0
170.06292724609375 1559.0
171.07278442382812 655.0
172.07460021972656 16167.0
173.08303833007812 4124.0
174.09442138671875 2720.0
180.0832977294922 591.0
181.08468627929688 411.0
182.0623321533203 1269.0
183.06729125976562 1763.0
184.07691955566406 12941.0
185.08169555664062 822.0
186.09303283691406 8489.0
187.10328674316406 272.0
188.0739288330078 1459.0
189.07989501953125 3396.0
191.06883239746094 233.0
192.078857421875 315.0
193.08570861816406 362.0
194.09910583496094 265.0
195.06222534179688 656.0
196.0768585205078 1428.0
197.080322265625 1297.0
198.09425354003906 7055.0
199.0909881591797 1395.0
200.112060546875 855.0
202.0882110595703 1304.0
204.08209228515625 239.0
205.0877227783203 247.0
206.1018829345703 342.0
207.11045837402344 374.0
208.0769500732422 399.0
209.08628845214844 563.0
210.0899200439453 4051.0
211.0939178466797 1118.0
212.1064453125 1072.0
213.10910034179688 741.0
214.0853729248047 812.0
215.09474182128906 254.0
216.10443115234375 287.0
217.089599609375 312.0
218.0977325439453 366.0
219.09365844726562 261.0
220.07521057128906 304.0
221.11318969726562 485.0
222.09715270996094 740.0
223.1084442138672 729.0
224.10313415527344 1970.0
225.10635375976562 917.0
226.1244659423828 1640.0
227.1173858642578 1203.0
232.11033630371094 450.0
233.1162872314453 299.0
234.09437561035156 696.0
235.0895538330078 443.0
236.10626220703125 1235.0
237.10137939453125 1446.0
238.1180877685547 1120.0
239.1217803955078 800.0
240.1341094970703 292.0
242.1171417236328 346.0
244.13462829589844 197.0
246.12747192382812 189.0
247.12582397460938 186.0
248.1107177734375 1441.0
249.1130828857422 562.0
250.12413024902344 1068.0
251.1194305419922 4589.0
252.12783813476562 1860.0
253.13381958007812 8429.0
254.15521240234375 649.0
262.1231689453125 679.0
263.1260986328125 576.0
264.14007568359375 3166.0
265.1377258300781 1414.0
266.15325927734375 677.0
268.1672058105469 219.0
275.16400146484375 273.0
276.1449279785156 370.0
277.1392822265625 666.0
278.15411376953125 1616.0
279.1544189453125 3161.0
280.1729431152344 277.0
282.15191650390625 1038.0
290.1542053222656 328.0
291.1446838378906 225.0
292.1536560058594 243.0
296.15869140625 553.0
297.207763671875 671.0
305.1642761230469 297.0
307.1827392578125 22583.0
324.1988830566406 221.0
325.1951904296875 100263.0

Name: Benzoylaconine
Precursor_mz: 604.3110975
Cas: 466-24-0
Adduct: [M+H]+
Mz: 604.3116231
Comment: Major
Smiles: CCN1C[C@@]2(COC)[C@H]3[C@@H](OC)[C@H]4C1[C@]3([C@@H](OC)C[C@H]2O)[C@@H]1C[C@]2(O)[C@@H](OC)[C@H](O)[C@@]4(O)[C@H]1[C@H]2OC(=O)c1ccccc1
Formula: C32H45NO10
Mix: Alkaloids-pos-mix27
Rt: [2.966]
Rt_apex: 2.969245395
Rt_start: 2.89675
Rt_end: 3.165716667
Ms1_intensity: 12217311
N_scnas: 40
Ms1_scan_range: [613, 624, 654]
Reci_snr: 2.04e-05
Ms2_scan_idx: 1572
Pmz_offset: 0.000870314
Entropy: 0.8641321063041687
Num Peaks: 266
45.03271484375 392.0
51.02364730834961 237.0
55.017356872558594 230.0
56.048484802246094 1759.0
58.0645866394043 7936.0
71.0475845336914 260.0
75.04602813720703 688.0
77.03825378417969 4857.0
79.05408477783203 479.0
84.0801010131836 641.0
85.0259780883789 1493.0
87.04615783691406 247.0
88.07699584960938 351.0
91.05319213867188 687.0
94.06523895263672 201.0
95.04912567138672 498.0
96.07939910888672 640.0
97.0267333984375 314.0
98.09265899658203 260.0
100.07063293457031 220.0
102.09245300292969 794.0
105.03289794921875 73036.0
107.04735565185547 290.0
108.07926940917969 1356.0
109.06482696533203 916.0
110.09461975097656 303.0
111.07894897460938 330.0
112.07657623291016 298.0
114.08971405029297 279.0
115.05406951904297 341.0
117.06935119628906 383.0
119.04547882080078 230.0
121.06747436523438 476.0
122.09648895263672 1223.0
123.04110717773438 1129.0
124.07376861572266 223.0
125.02599334716797 1368.0
128.0632781982422 470.0
129.06573486328125 1324.0
131.08718872070312 557.0
133.06283569335938 213.0
134.09764099121094 247.0
135.07772827148438 469.0
138.0921630859375 555.0
140.10809326171875 315.0
141.0681915283203 1477.0
142.07672119140625 382.0
143.0838165283203 507.0
145.06134033203125 456.0
146.0959014892578 305.0
147.07626342773438 321.0
148.1162567138672 212.0
150.092041015625 220.0
152.11032104492188 2498.0
153.06895446777344 680.0
154.11770629882812 473.0
155.08961486816406 1481.0
157.09890747070312 374.0
158.09251403808594 563.0
159.08218383789062 739.0
160.11399841308594 449.0
161.09214782714844 450.0
165.06878662109375 707.0
166.08001708984375 390.0
167.08526611328125 1139.0
168.09535217285156 232.0
169.09573364257812 496.0
171.0778350830078 659.0
172.1109619140625 697.0
173.09181213378906 664.0
175.07484436035156 168.0
176.1031951904297 251.0
178.0771484375 377.0
179.08233642578125 820.0
181.10496520996094 772.0
182.11106872558594 1213.0
183.08578491210938 548.0
184.11070251464844 1031.0
185.09457397460938 1142.0
186.12890625 660.0
187.1104736328125 682.0
188.10421752929688 233.0
189.0890350341797 203.0
190.12286376953125 733.0
191.0857696533203 902.0
192.0919647216797 202.0
193.10275268554688 943.0
195.079345703125 634.0
196.11563110351562 598.0
197.09556579589844 1061.0
198.12335205078125 613.0
200.1075439453125 349.0
201.08544921875 331.0
202.1175994873047 450.0
203.08438110351562 723.0
204.09356689453125 636.0
205.09722900390625 1908.0
207.07960510253906 740.0
208.0966339111328 283.0
209.09181213378906 1069.0
210.1280059814453 804.0
211.13821411132812 796.0
212.1488037109375 832.0
213.10032653808594 355.0
214.1197052001953 386.0
215.09622192382812 336.0
216.13685607910156 587.0
217.10142517089844 854.0
218.07643127441406 194.0
219.0785369873047 810.0
220.08294677734375 333.0
221.0959014892578 1168.0
222.10491943359375 289.0
223.1099395751953 1018.0
224.113037109375 178.0
225.09310913085938 411.0
226.1217498779297 234.0
227.106201171875 410.0
228.14154052734375 273.0
229.0985107421875 517.0
230.15966796875 348.0
231.11019897460938 351.0
232.0883331298828 170.0
233.09852600097656 2071.0
234.10018920898438 299.0
235.10829162597656 1508.0
237.1223602294922 488.0
238.1239471435547 344.0
239.10595703125 598.0
241.11959838867188 173.0
242.15142822265625 546.0
245.09312438964844 695.0
247.11412048339844 1083.0
249.12127685546875 508.0
250.09239196777344 285.0
251.10763549804688 893.0
252.13385009765625 313.0
253.12643432617188 579.0
254.1478271484375 246.0
256.13385009765625 183.0
257.0982666015625 183.0
259.1093444824219 235.0
260.16534423828125 211.0
261.0896911621094 807.0
262.09521484375 339.0
263.1094665527344 799.0
264.1347961425781 256.0
265.12786865234375 1317.0
266.1502685546875 333.0
267.137939453125 331.0
269.1256408691406 317.0
270.146484375 205.0
273.0930480957031 303.0
275.1097412109375 755.0
277.12451171875 579.0
278.160400390625 450.0
279.1091003417969 726.0
281.1219787597656 460.0
282.1440734863281 194.0
283.13262939453125 529.0
289.1264343261719 263.0
290.15582275390625 766.0
293.1203308105469 1196.0
295.1275634765625 445.0
296.1675720214844 268.0
297.146484375 224.0
300.14642333984375 192.0
305.129150390625 228.0
306.1473083496094 1405.0
307.14501953125 528.0
308.16900634765625 432.0
309.1502990722656 291.0
311.1298828125 624.0
314.1695861816406 213.0
318.15203857421875 693.0
321.1477966308594 318.0
322.1797180175781 461.0
323.132568359375 265.0
324.16009521484375 262.0
325.146240234375 601.0
326.1769714355469 174.0
329.1388854980469 210.0
336.15185546875 420.0
338.1798095703125 251.0
339.1715393066406 326.0
340.1905822753906 370.0
343.15814208984375 408.0
350.16839599609375 882.0
356.1920166015625 288.0
357.1540832519531 187.0
368.1832580566406 1284.0
374.2071533203125 239.0
382.20074462890625 397.0
386.2030334472656 386.0
400.2109069824219 775.0
415.17431640625 375.0
418.2223205566406 348.0
428.1792297363281 2069.0
432.2397155761719 540.0
433.16802978515625 405.0
440.1826171875 293.0
446.19171142578125 356.0
447.1942138671875 553.0
450.2531433105469 253.0
452.2087097167969 341.0
458.19989013671875 533.0
460.208740234375 434.0
462.20989990234375 373.0
464.2123718261719 607.0
465.1925354003906 1946.0
466.2252502441406 777.0
472.2076416015625 1445.0
476.21405029296875 434.0
477.2098388671875 332.0
478.22509765625 1687.0
479.20458984375 228.0
480.2342834472656 1022.0
482.20758056640625 181.0
490.2283020019531 5605.0
492.2375793457031 527.0
494.2291259765625 494.0
496.2403564453125 8371.0
497.22869873046875 359.0
498.24310302734375 487.0
504.2409362792969 1694.0
508.23199462890625 5552.0
509.2322082519531 239.0
510.2587890625 1446.0
512.2642211914062 451.0
514.2544555664062 343.0
522.2508544921875 35007.0
524.2636108398438 1144.0
526.23193359375 363.0
528.2587890625 1540.0
536.2686767578125 707.0
540.2603149414062 16644.0
542.287841796875 279.0
554.2783203125 232233.0
568.2985229492188 223.0
572.2899169921875 72574.0
586.3035888671875 24541.0
603.8132934570312 165.0
604.31689453125 1338580.0
605.3246459960938 602.0
605.6008911132812 5752.0
605.759765625 7927.0
606.1674194335938 1775.0
606.3021850585938 561.0
606.4369506835938 197.0
606.5509643554688 199.0
606.6823120117188 353.0
606.7998657226562 244.0
606.9415893554688 160.0
607.3358154296875 188.0
607.4844970703125 198.0
607.615966796875 228.0
607.8719482421875 216.0
608.1072998046875 178.0
608.23876953125 167.0
608.3806762695312 209.0
608.5606689453125 177.0
608.7719116210938 177.0
609.1182250976562 195.0
609.4230346679688 164.0
611.0037841796875 164.0
611.34033203125 169.0

Name: Allomatrine
Precursor_mz: 249.196917
Cas: 641-39-4
Adduct: [M+H]+
Mz: 249.1961399
Comment: Major
Smiles: O=C1CCC[C@@H]2[C@H]3CCCN4CCC[C@@H](CN12)[C@H]34
Formula: C15H24N2O
Mix: Alkaloids-pos-mix27
Rt: [1.352]
Rt_apex: 1.350923768
Rt_start: 1.2947
Rt_end: 1.509333333
Ms1_intensity: 2299532
N_scnas: 33
Ms1_scan_range: [365, 375, 399]
Reci_snr: 0.000166221
Ms2_scan_idx: 537
Pmz_offset: 0.003474145
Entropy: 0.9578084945678711
Num Peaks: 102
41.03841781616211 1804.0
42.032371520996094 483.0
43.05479049682617 521.0
44.049434661865234 2517.0
53.03709030151367 353.0
54.036170959472656 178.0
55.0185432434082 3566.0
56.049686431884766 1862.0
58.06474304199219 898.0
65.04010009765625 446.0
67.05530548095703 3552.0
68.04954528808594 656.0
69.06976318359375 1262.0
70.06702423095703 10649.0
77.0396957397461 2210.0
79.05429077148438 5211.0
80.0481185913086 1778.0
81.07088470458984 3558.0
82.0658187866211 2819.0
83.0732192993164 384.0
84.08161926269531 14026.0
91.05612182617188 5265.0
93.0691146850586 6506.0
94.06549072265625 1896.0
96.0810317993164 7321.0
97.09059143066406 1000.0
98.06234741210938 6835.0
100.0765151977539 408.0
103.05351257324219 1233.0
105.07057189941406 2582.0
106.06403350830078 1985.0
107.08539581298828 3622.0
108.08247375488281 3006.0
109.10176086425781 1014.0
110.09785461425781 6017.0
111.09848022460938 215.0
112.0768814086914 14602.0
114.09901428222656 244.0
115.0558853149414 346.0
116.06210327148438 160.0
117.06967163085938 787.0
119.08560943603516 1560.0
120.08158111572266 9614.0
121.10176849365234 1369.0
122.09526062011719 5930.0
123.10682678222656 674.0
124.11161804199219 3332.0
129.07086181640625 243.0
130.06924438476562 466.0
131.08753967285156 1257.0
132.0791778564453 1677.0
133.0874786376953 1011.0
134.09800720214844 6579.0
135.1090850830078 963.0
136.1125030517578 9299.0
137.12127685546875 648.0
138.12881469726562 2810.0
143.0892333984375 208.0
144.08474731445312 258.0
146.09799194335938 835.0
147.10899353027344 676.0
148.1132354736328 6477.0
149.12261962890625 806.0
150.1268310546875 14411.0
151.10679626464844 254.0
152.14361572265625 19942.0
158.1017608642578 1254.0
159.12155151367188 292.0
160.11265563964844 971.0
161.11929321289062 249.0
162.12908935546875 2571.0
163.1348876953125 429.0
164.10601806640625 1059.0
166.12567138671875 860.0
172.1151123046875 538.0
173.12181091308594 206.0
174.12774658203125 597.0
176.1092529296875 7210.0
178.12257385253906 3283.0
180.13980102539062 7091.0
186.12940979003906 278.0
188.14515686035156 627.0
190.1233673095703 2998.0
192.13722229003906 611.0
202.1600341796875 250.0
203.1569366455078 316.0
204.1442413330078 1937.0
206.16030883789062 376.0
214.16134643554688 405.0
216.16839599609375 183.0
218.15370178222656 2504.0
220.1688995361328 2445.0
221.16744995117188 361.0
229.17559814453125 217.0
230.16029357910156 394.0
231.18975830078125 1061.0
232.17234802246094 1196.0
248.43577575683594 1256.0
249.19947814941406 510367.0
250.0198211669922 564.0
250.19515991210938 355.0
250.3838653564453 285.0

Name: Rhodamine B
Precursor_mz: 443.2334751
Cas: 81-88-9
Adduct: [M+H]+
Mz: 443.2329193
Comment: Major
Smiles: CCN(CC)c1ccc2c(-c3ccccc3C(=O)[O-])c3ccc(N(CC)CC)cc3[o+]c2c1
Formula: C28H30N2O3
Mix: Alkaloids-pos-mix27
Rt: nan
Rt_apex: 4.378062507
Rt_start: 4.31965
Rt_end: 4.695616667
Ms1_intensity: 19127701
N_scnas: 59
Ms1_scan_range: [834, 844, 894]
Reci_snr: 0.000110365
Ms2_scan_idx: 2476
Pmz_offset: 0.000991404
Entropy: 0.9318149089813232
Num Peaks: 188
200.06629943847656 47.0
202.07814025878906 78.0
213.0741729736328 132.0
215.08847045898438 80.0
223.07479858398438 49.0
224.06100463867188 196.0
225.0641326904297 116.0
226.0779266357422 456.0
227.08766174316406 45.0
239.08477783203125 139.0
240.0752716064453 54.0
241.07000732421875 87.0
242.06680297851562 93.0
243.08314514160156 118.0
249.1063232421875 37.0
251.07260131835938 75.0
252.13885498046875 67.0
253.06448364257812 178.0
254.07455444335938 264.0
255.0799102783203 520.0
256.0895080566406 70.0
258.0898742675781 60.0
263.1214294433594 944.0
267.0949401855469 35.0
268.08892822265625 413.0
270.09173583984375 227.0
272.09271240234375 67.0
277.1321105957031 87.0
280.0694580078125 132.0
281.0943603515625 121.0
282.09521484375 1538.0
283.10491943359375 239.0
284.1116943359375 125.0
285.07049560546875 38.0
286.0926513671875 55.0
293.1666259765625 131.0
295.1016845703125 203.0
296.1078186035156 197.0
297.11083984375 135.0
298.1155700683594 199.0
299.07342529296875 122.0
300.1106262207031 237.0
301.0862731933594 65.0
307.1825866699219 1630.0
308.0711669921875 60.0
309.1090087890625 166.0
310.10906982421875 163.0
311.1181945800781 956.0
312.17852783203125 118.0
314.1130676269531 62.0
315.0887756347656 231.0
316.0984802246094 97.0
325.1292419433594 253.0
326.0813903808594 686.0
326.1979675292969 33.0
327.0958251953125 2788.0
328.09912109375 1852.0
329.1014099121094 79.0
337.11041259765625 117.0
338.1108703613281 55.0
339.1567687988281 231.0
340.1706237792969 311.0
341.10565185546875 7465.0
342.10943603515625 567.0
343.1173095703125 377.0
344.1734924316406 340.0
354.016357421875 285.0
354.1695251464844 43.0
355.1103515625 129153.0
356.12127685546875 563.0
357.1442565917969 295.0
358.13946533203125 120.0
359.1573791503906 65.0
360.16070556640625 508.0
369.12713623046875 10159.0
369.9985046386719 83.0
370.15240478515625 2159.0
371.14935302734375 32669.0
372.1665954589844 3332.0
373.166259765625 112.0
374.16998291015625 76.0
381.1625061035156 68.0
382.1741638183594 58.0
383.1404724121094 2215.0
384.1602478027344 184.0
385.1703796386719 53858.0
386.1707763671875 1127.0
387.1863098144531 243.0
388.1976318359375 280.0
397.15753173828125 183.0
398.1789855957031 99.0
399.1737060546875 760767.0
400.214599609375 1803.0
401.20904541015625 74.0
402.16534423828125 55.0
403.14813232421875 80.0
410.1549987792969 38.0
411.1788024902344 123.0
413.1902770996094 152482.0
414.2035827636719 164.0
415.20379638671875 18696.0
425.2262268066406 63.0
427.20501708984375 14675.0
428.2121276855469 158.0
441.875244140625 19217.0
442.29425048828125 208.0
442.45068359375 61.0
442.5776062011719 60.0
442.7400207519531 125.0
442.8758544921875 158.0
442.99102783203125 272.0
443.2510070800781 1017982.0
444.4720764160156 9484.0
444.66143798828125 777.0
444.8212585449219 2792.0
444.93963623046875 710.0
445.0876770019531 280.0
445.2682800292969 591.0
445.3808288574219 440.0
445.4933776855469 201.0
445.6118469238281 178.0
445.8133239746094 261.0
445.9377746582031 254.0
446.05633544921875 253.0
446.37054443359375 228.0
446.51287841796875 209.0
446.6196594238281 249.0
446.7353210449219 180.0
446.84210205078125 150.0
447.04681396484375 139.0
447.20111083984375 153.0
447.3970031738281 164.0
447.63153076171875 144.0
447.8809814453125 142.0
448.08294677734375 138.0
448.2731018066406 150.0
448.43060302734375 131.0
448.66241455078125 152.0
449.05487060546875 119.0
449.2839050292969 116.0
449.45941162109375 108.0
449.7301940917969 107.0
450.1856384277344 110.0
450.3881530761719 99.0
450.7008972167969 98.0
450.8200988769531 88.0
450.9690856933594 105.0
451.1866760253906 78.0
451.3774719238281 92.0
451.7323303222656 76.0
451.90234375 79.0
452.0455627441406 93.0
452.49920654296875 93.0
452.6932678222656 83.0
453.3145446777344 58.0
453.56854248046875 72.0
453.7359313964844 49.0
453.9033508300781 89.0
454.1275939941406 73.0
454.755859375 86.0
454.87255859375 53.0
455.0401916503906 62.0
455.2168273925781 53.0
455.3545837402344 76.0
455.564208984375 58.0
455.7200012207031 74.0
455.8338317871094 75.0
456.004638671875 69.0
456.24139404296875 97.0
456.5322265625 56.0
456.80511474609375 70.0
457.2431335449219 90.0
457.9996643066406 61.0
458.61553955078125 53.0
459.3160400390625 33.0
459.4303283691406 52.0
459.5657043457031 44.0
460.02911376953125 35.0
460.291015625 47.0
461.050048828125 107.0
461.1886901855469 43.0
462.06005859375 48.0
462.8869934082031 45.0
463.1315612792969 35.0
463.5182189941406 37.0
463.8506164550781 43.0
464.99078369140625 32.0
465.56591796875 61.0

Name: Benzoylhypaconine
Precursor_mz: 574.3010099
Cas: 63238-66-4
Adduct: [M+H]+
Mz: 574.3010584
Comment: Major
Smiles: COC[C@@]12CCC(OC)C34C(C([C@H](OC)[C@@H]31)[C@@]1(O)[C@@H](O)[C@H](OC)[C@@]3(O)C[C@@H]4[C@@H]1[C@H]3OC(=O)c1ccccc1)N(C)C2
Formula: C31H43NO9
Mix: Alkaloids-pos-mix27
Rt: [3.064]
Rt_apex: 3.062440828
Rt_start: 3.018733333
Rt_end: 3.910833333
Ms1_intensity: 10472843
N_scnas: 135
Ms1_scan_range: [632, 639, 768]
Reci_snr: 6.11e-05
Ms2_scan_idx: 1632
Pmz_offset: 0.000861294
Entropy: 0.8259048461914062
Num Peaks: 336
42.034061431884766 1628.0
44.050228118896484 17609.0
45.03175354003906 921.0
51.022621154785156 309.0
55.01525115966797 271.0
58.06455993652344 1672.0
67.05394744873047 338.0
70.06562805175781 706.0
71.04873657226562 652.0
74.06330108642578 1138.0
75.04356384277344 543.0
77.03822326660156 7714.0
78.032958984375 188.0
79.05404663085938 765.0
81.03020477294922 229.0
82.06556701660156 746.0
84.08135223388672 841.0
85.02723693847656 1843.0
87.04350280761719 292.0
88.07432556152344 3216.0
91.05449676513672 1668.0
93.07288360595703 420.0
94.06655883789062 17652.0
95.04771423339844 531.0
96.07935333251953 1080.0
97.028076171875 499.0
99.0442123413086 255.0
100.07479858398438 586.0
103.05461883544922 391.0
105.03428649902344 194600.0
107.04730987548828 784.0
108.08068084716797 5696.0
109.06331634521484 1463.0
110.09603881835938 3096.0
111.04340362548828 423.0
112.07504272460938 585.0
113.05772399902344 172.0
114.0881576538086 926.0
115.05401611328125 813.0
117.06930541992188 1105.0
118.06749725341797 170.0
119.0867691040039 467.0
120.0827407836914 548.0
121.06896209716797 709.0
122.09487915039062 286.0
123.04572296142578 2126.0
124.07996368408203 177.0
125.0228042602539 3282.0
126.09524536132812 1818.0
127.05518341064453 337.0
128.06163024902344 1040.0
129.06886291503906 3009.0
131.08392333984375 1986.0
132.0819854736328 568.0
133.10325622558594 378.0
134.09271240234375 689.0
135.04342651367188 380.0
137.06004333496094 1131.0
138.09210205078125 4363.0
139.03866577148438 660.0
140.1080322265625 18451.0
141.068115234375 2157.0
142.07833862304688 531.0
143.08543395996094 3106.0
144.0859832763672 478.0
145.10183715820312 540.0
146.09413146972656 511.0
147.081298828125 369.0
148.11448669433594 443.0
149.09645080566406 408.0
150.0902557373047 227.0
151.04251098632812 277.0
152.11026000976562 389.0
153.07235717773438 680.0
154.0775604248047 749.0
155.0843048095703 2958.0
156.0908203125 476.0
157.10060119628906 1721.0
158.09420776367188 656.0
159.08387756347656 795.0
160.11392211914062 576.0
161.09564208984375 760.0
163.11106872558594 556.0
164.1072998046875 292.0
165.06871032714844 1602.0
166.07632446289062 502.0
167.08518981933594 2510.0
168.0989227294922 480.0
169.10113525390625 2936.0
170.0953369140625 748.0
171.11631774902344 1482.0
172.1108856201172 2177.0
173.09727478027344 707.0
174.12350463867188 417.0
175.0821990966797 350.0
178.0770721435547 487.0
179.08226013183594 2211.0
180.09214782714844 443.0
181.10299682617188 1835.0
182.09963989257812 404.0
183.0762176513672 916.0
184.1334686279297 1450.0
185.0963897705078 1217.0
186.125 660.0
187.11997985839844 920.0
188.11376953125 684.0
189.12754821777344 679.0
190.08407592773438 201.0
191.0915069580078 1268.0
192.0918731689453 759.0
193.1026611328125 2156.0
194.1141357421875 313.0
195.1165008544922 1333.0
196.10964965820312 589.0
197.09744262695312 1458.0
198.12721252441406 5123.0
199.1141357421875 1234.0
200.13922119140625 928.0
201.12515258789062 603.0
202.0815887451172 570.0
203.0902862548828 707.0
204.10150146484375 641.0
205.107177734375 1976.0
206.10728454589844 363.0
207.1138458251953 2429.0
208.08642578125 416.0
209.0957794189453 1266.0
210.13197326660156 446.0
211.11160278320312 1150.0
212.10781860351562 412.0
213.08795166015625 382.0
214.11961364746094 362.0
215.1084747314453 390.0
216.09344482421875 405.0
217.10546875 1365.0
218.15301513671875 358.0
219.11582946777344 1862.0
220.08700561523438 379.0
221.0999755859375 1391.0
222.1299285888672 332.0
223.11822509765625 1396.0
224.11924743652344 285.0
225.1245880126953 1157.0
226.1279754638672 330.0
227.10609436035156 669.0
228.1393280029297 246.0
229.1005401611328 830.0
230.15318298339844 1201.0
231.12075805664062 772.0
232.1694793701172 1108.0
233.10057067871094 893.0
234.10223388671875 457.0
235.11248779296875 3307.0
236.1184539794922 365.0
237.12225341796875 951.0
238.128173828125 857.0
239.1123504638672 1120.0
240.13552856445312 216.0
241.12603759765625 622.0
242.11419677734375 193.0
243.10000610351562 367.0
244.1338653564453 169.0
245.09521484375 741.0
246.1068878173828 240.0
247.114013671875 2219.0
248.17626953125 293.0
249.1322479248047 1994.0
250.1255645751953 324.0
251.1097412109375 789.0
252.1404266357422 404.0
253.13302612304688 1003.0
254.147705078125 594.0
255.11062622070312 500.0
256.1427307128906 239.0
257.0981750488281 400.0
259.1114807128906 497.0
260.1471252441406 465.0
261.1326599121094 644.0
262.1814270019531 603.0
263.1070861816406 1962.0
264.14154052734375 389.0
265.1231689453125 1370.0
266.15472412109375 188.0
267.1355285644531 1269.0
269.1186218261719 445.0
271.1344909667969 262.0
273.1369934082031 246.0
275.109619140625 703.0
276.139404296875 296.0
277.1220397949219 1391.0
278.15325927734375 987.0
279.1324462890625 695.0
280.1391906738281 230.0
281.12420654296875 908.0
282.148681640625 670.0
283.1301574707031 584.0
285.1289978027344 458.0
286.1797180175781 221.0
287.1348876953125 266.0
288.1463928222656 365.0
289.1263122558594 300.0
291.14617919921875 190.0
292.1767272949219 356.0
293.1202087402344 594.0
294.1494445800781 552.0
295.1394958496094 1943.0
296.1722717285156 551.0
297.1463623046875 562.0
306.1471862792969 1278.0
307.13507080078125 589.0
309.1526184082031 1300.0
310.179931640625 769.0
311.1495361328125 615.0
312.16778564453125 207.0
313.14544677734375 747.0
314.17938232421875 523.0
315.1826171875 257.0
320.1600646972656 391.0
321.1375732421875 182.0
323.1526184082031 210.0
324.1650085449219 840.0
325.1435852050781 528.0
326.1717529296875 301.0
327.1634826660156 718.0
328.199951171875 442.0
338.1848449707031 1744.0
339.140380859375 352.0
341.16436767578125 202.0
342.2123718261719 610.0
343.165771484375 186.0
345.1730651855469 347.0
346.2010803222656 372.0
353.14990234375 219.0
354.1632995605469 187.0
355.19140625 225.0
356.1812438964844 2126.0
357.1724853515625 221.0
358.19696044921875 181.0
360.1837463378906 624.0
370.2054138183594 1809.0
374.2015686035156 379.0
385.1583251953125 303.0
386.1807861328125 201.0
388.2187194824219 3707.0
392.2050476074219 417.0
400.1798400878906 177.0
401.17144775390625 179.0
402.2318420410156 911.0
404.1874694824219 232.0
406.2242126464844 262.0
410.1681213378906 213.0
417.1781311035156 417.0
418.2221374511719 203.0
420.24212646484375 1315.0
426.197998046875 238.0
428.19647216796875 1233.0
430.2025451660156 322.0
432.1957702636719 555.0
434.205322265625 282.0
435.1737976074219 240.0
436.22833251953125 413.0
438.197265625 395.0
440.2265930175781 200.0
442.1927490234375 390.0
446.2063293457031 963.0
447.18511962890625 346.0
448.20654296875 252.0
449.20538330078125 236.0
450.1963806152344 1610.0
452.2144775390625 442.0
454.16827392578125 195.0
456.19525146484375 242.0
458.21771240234375 199.0
460.21453857421875 4745.0
462.227783203125 282.0
464.2152099609375 2415.0
465.20745849609375 1062.0
466.2129211425781 451.0
467.21337890625 324.0
468.2392272949219 436.0
470.2090759277344 319.0
478.2310485839844 12934.0
479.2228088378906 192.0
480.24945068359375 1774.0
482.2196960449219 8052.0
484.23724365234375 2017.0
492.23736572265625 8164.0
494.2601318359375 219.0
496.2401123046875 1306.0
500.22772216796875 480.0
510.2522277832031 96532.0
512.2671508789062 3125.0
514.2478637695312 2656.0
524.2666015625 6689.0
542.27783203125 784333.0
572.2930297851562 237.0
574.30908203125 929020.0
575.564208984375 5535.0
575.7123413085938 7761.0
576.1097412109375 1216.0
576.2545776367188 657.0
576.3724975585938 227.0
576.4837036132812 175.0
576.6117553710938 383.0
576.7431640625 300.0
576.8948364257812 228.0
577.0094604492188 192.0
577.2420654296875 232.0
577.3702392578125 170.0
577.5321044921875 245.0
577.6332397460938 170.0
577.8795166015625 271.0
578.0076904296875 192.0
578.1527709960938 286.0
578.3923950195312 256.0
578.6455688476562 184.0
578.8109741210938 216.0
579.2904663085938 214.0
579.4492797851562 165.0
579.662109375 182.0
579.8175048828125 186.0
579.9256591796875 181.0
580.1791381835938 185.0
580.4293212890625 177.0
580.6626586914062 166.0
580.916259765625 196.0
581.31884765625 187.0
582.4495239257812 174.0
582.6730346679688 168.0
582.832275390625 163.0
583.055908203125 221.0
583.2355346679688 268.0
584.1781005859375 159.0
584.449462890625 173.0
586.1300048828125 158.0
591.4011840820312 160.0

Name: Oxysophoridine
Precursor_mz: 265.1921224
Cas: 54809-74-4
Adduct: [M+H]+
Mz: 265.1910545
Comment: Major
Smiles: O=C1CCC[C@@H]2[C@H]3CCC[N+]4([O-])CCC[C@H](CN12)[C@@H]34
Formula: C15H24N2O2
Mix: Alkaloids-pos-mix27
Rt: [1.504]
Rt_apex: 1.503005894
Rt_start: 1.44235
Rt_end: 1.60105
Ms1_intensity: 2921123
N_scnas: 24
Ms1_scan_range: [389, 398, 414]
Reci_snr: 0.000223386
Ms2_scan_idx: 642
Pmz_offset: 0.002165932
Entropy: 1.0000001192092896
Num Peaks: 75
55.017398834228516 1003.0
56.04853057861328 240.0
70.06571960449219 836.0
77.03585052490234 311.0
79.05538940429688 480.0
80.04796600341797 512.0
81.05809783935547 199.0
82.06312561035156 805.0
83.07178497314453 1151.0
84.08016967773438 770.0
91.05728912353516 577.0
92.0468978881836 373.0
93.05540466308594 323.0
94.06394958496094 1048.0
95.0738296508789 346.0
96.08222961425781 3476.0
97.087646484375 463.0
98.09829711914062 5173.0
105.05599212646484 513.0
106.06527709960938 1487.0
107.07357788085938 1130.0
108.07935333251953 1909.0
109.09130096435547 665.0
110.09617614746094 1390.0
111.10418701171875 343.0
112.07221221923828 548.0
118.06459045410156 278.0
119.07772827148438 260.0
120.07981872558594 5125.0
121.09227752685547 1091.0
122.09813690185547 6232.0
123.1019287109375 1126.0
124.11138916015625 1717.0
132.0773162841797 1137.0
133.08885192871094 4215.0
134.09774780273438 4474.0
135.10231018066406 1135.0
136.11224365234375 13180.0
137.1210174560547 7679.0
138.0906219482422 1033.0
146.09771728515625 1455.0
147.09510803222656 288.0
148.1129608154297 10076.0
149.11891174316406 4385.0
150.12826538085938 31071.0
151.13584899902344 3410.0
152.11044311523438 169.0
158.09970092773438 197.0
160.11056518554688 3052.0
161.08692932128906 2459.0
162.1287841796875 3613.0
163.1202392578125 454.0
164.1362762451172 719.0
174.13113403320312 552.0
175.12698364257812 2358.0
176.1405792236328 1680.0
177.1403045654297 17929.0
178.14096069335938 580.0
188.14479064941406 1732.0
189.11427307128906 271.0
190.15977478027344 738.0
191.15382385253906 723.0
192.16409301757812 2941.0
204.17794799804688 333.0
206.19216918945312 3297.0
207.1484375 552.0
219.1472625732422 1911.0
220.19346618652344 2135.0
229.17092895507812 203.0
233.16299438476562 786.0
245.16802978515625 396.0
247.18492126464844 126203.0
248.18983459472656 16754.0
264.3859558105469 466.0
265.19207763671875 109096.0

Name: Oxysophoridine
Precursor_mz: 265.1903023
Cas: 54809-74-4
Adduct: [M+H]+
Mz: 265.1910545
Comment: isomer
Smiles: O=C1CCC[C@@H]2[C@H]3CCC[N+]4([O-])CCC[C@H](CN12)[C@@H]34
Formula: C15H24N2O2
Mix: Alkaloids-pos-mix27
Rt: [1.504]
Rt_apex: 1.630882283
Rt_start: 1.60105
Rt_end: 2.014466667
Ms1_intensity: 42597
N_scnas: 67
Ms1_scan_range: [414, 418, 482]
Reci_snr: 0.014121313
Ms2_scan_idx: 698
Pmz_offset: 0.000345784
Entropy: 1.0
Num Peaks: 20
84.07518005371094 92.0
98.09569549560547 342.0
120.08157348632812 330.0
122.09215545654297 314.0
133.09071350097656 266.0
134.09799194335938 373.0
136.11248779296875 719.0
138.09088134765625 209.0
146.09967041015625 92.0
148.1115264892578 594.0
160.11087036132812 267.0
161.0836639404297 208.0
162.12908935546875 350.0
175.1254425048828 92.0
177.140625 1075.0
205.13595581054688 1855.0
206.18447875976562 223.0
219.1871337890625 253.0
247.1853790283203 4253.0
265.19482421875 3625.0

Name: (+)-Viroallosecurinine
Precursor_mz: 218.1174765
Cas: 1857-30-3
Adduct: [M+H]+
Mz: 218.1175552
Comment: Major
Smiles: O=C1C=C2C=C[C@H]3C[C@]2(O1)[C@H]1CCCCN31
Formula: C13H15NO2
Mix: Alkaloids-pos-mix27
Rt: [0.604, 0.934]
Rt_apex: 0.603418314
Rt_start: 0.532
Rt_end: 0.8075
Ms1_intensity: 512703
N_scnas: 78
Ms1_scan_range: [159, 172, 238]
Reci_snr: 0.003945171
Ms2_scan_idx: 258
Pmz_offset: 0.001523908
Entropy: 0.5447998046875
Num Peaks: 11
56.04966735839844 13955.0
82.0657958984375 1989.0
103.0549087524414 123.0
115.0498275756836 253.0
118.06782531738281 92.0
128.06358337402344 404.0
129.0660400390625 685.0
144.08132934570312 356.0
162.09152221679688 832.0
190.08848571777344 314.0
218.12254333496094 8354.0

Name: Dihydroberberine
Precursor_mz: 338.1400598
Cas: 483-15-8
Adduct: [M+H]+
Mz: 338.1386845
Comment: Major
Smiles: COc1ccc2c(c1OC)CN1CCc3cc4c(cc3C1=C2)OCO4
Formula: C20H19NO4
Mix: Alkaloids-pos-mix27
Rt: [2.188, 2.578, 2.684, 2.941]
Rt_apex: 2.580098086
Rt_start: 2.527933333
Rt_end: 2.6616
Ms1_intensity: 183512
N_scnas: 19
Ms1_scan_range: [558, 566, 578]
Reci_snr: 0.005417649
Ms2_scan_idx: 1254
Pmz_offset: 0.002054024
Entropy: 0.9673264622688293
Num Peaks: 79
89.0384750366211 629.0
91.05460357666016 426.0
103.05188751220703 106.0
116.05130004882812 112.0
117.03148651123047 275.0
118.06458282470703 168.0
119.0470962524414 122.0
131.0503387451172 159.0
132.0418243408203 153.0
133.06455993652344 140.0
135.0435791015625 128.0
145.06651306152344 144.0
146.05868530273438 434.0
147.0457305908203 1374.0
148.04635620117188 187.0
149.0537872314453 239.0
150.06808471679688 237.0
158.06263732910156 193.0
160.0377655029297 113.0
163.07542419433594 213.0
165.0887451171875 274.0
172.07427978515625 122.0
173.060546875 133.0
174.0570526123047 871.0
175.0638427734375 761.0
176.0679473876953 140.0
186.05821228027344 119.0
187.06069946289062 182.0
188.0677947998047 160.0
189.0911102294922 167.0
190.08624267578125 1138.0
200.07395935058594 673.0
216.10194396972656 236.0
218.09938049316406 111.0
219.07870483398438 246.0
220.0768585205078 174.0
221.09190368652344 159.0
222.09254455566406 161.0
224.07118225097656 114.0
225.08274841308594 136.0
226.08604431152344 269.0
234.08963012695312 320.0
235.0977020263672 115.0
236.110107421875 641.0
246.0873565673828 113.0
247.07460021972656 125.0
248.09698486328125 246.0
249.08824157714844 352.0
250.08590698242188 242.0
252.10061645507812 100.0
262.0908508300781 339.0
263.0982666015625 163.0
264.1053466796875 2958.0
265.1097717285156 177.0
266.118408203125 337.0
275.09130859375 103.0
276.10009765625 378.0
277.1106872558594 617.0
278.0950622558594 114.0
279.090576171875 140.0
280.1019287109375 768.0
290.0867004394531 190.0
291.0914611816406 174.0
292.10272216796875 2742.0
293.1085510253906 1637.0
294.1160888671875 5914.0
295.11572265625 136.0
304.1129150390625 128.0
306.1131591796875 679.0
307.0837707519531 126.0
308.0928955078125 221.0
310.150634765625 117.0
320.09515380859375 995.0
321.1027526855469 221.0
322.10943603515625 54872.0
323.11767578125 2604.0
336.11865234375 621.0
337.10992431640625 102.0
338.1439514160156 27023.0

Name: Lotusine
Precursor_mz: 314.1754197
Cas: 6871-67-6
Adduct: [M]+
Mz: 314.1750701
Comment: Major
Smiles: COc1cc2c(cc1O)CC[N+](C)(C)[C@@H]2Cc1ccc(O)cc1
Formula: C19H24NO3+
Mix: Alkaloids-pos-mix28
Rt: [1.741]
Rt_apex: 1.748597624
Rt_start: 1.699633333
Rt_end: 2.05735
Ms1_intensity: 1474681
N_scnas: 71
Ms1_scan_range: [491, 502, 563]
Reci_snr: 0.000973761
Ms2_scan_idx: 767
Pmz_offset: 0.00101345
Entropy: 0.9796460866928101
Num Peaks: 113
42.034141540527344 3919.0
43.04092788696289 1348.0
44.05031204223633 502.0
55.02055740356445 209.0
56.04856872558594 401.0
57.05958557128906 105.0
58.065738677978516 187342.0
71.07608032226562 108.0
72.08052062988281 128.0
77.0371322631836 1948.0
79.05169677734375 606.0
82.06317901611328 113.0
89.03985595703125 108.0
91.0546646118164 3082.0
93.06900024414062 985.0
94.042236328125 141.0
95.04926300048828 355.0
102.04580688476562 167.0
103.05339050292969 2247.0
105.07188415527344 420.0
107.0504150390625 67131.0
109.06205749511719 199.0
115.05423736572266 7531.0
116.06346893310547 187.0
117.07103729248047 1757.0
119.0487060546875 938.0
121.06610107421875 6779.0
122.03308868408203 430.0
127.0538330078125 1196.0
128.06028747558594 161.0
129.06752014160156 170.0
130.0466766357422 214.0
131.048828125 1892.0
132.05642700195312 363.0
133.06141662597656 555.0
136.0501251220703 195.0
137.060302734375 4982.0
141.07171630859375 161.0
143.04876708984375 4253.0
144.0542449951172 711.0
145.06661987304688 4471.0
146.0944061279297 448.0
147.0441436767578 1290.0
149.0607452392578 921.0
150.0905303955078 950.0
151.0755615234375 2188.0
152.0603485107422 228.0
153.07090759277344 341.0
155.06362915039062 304.0
157.06394958496094 327.0
159.07887268066406 86.0
160.05384826660156 1946.0
161.05853271484375 337.0
162.06814575195312 792.0
163.0773162841797 1280.0
164.10581970214844 1365.0
165.0690155029297 1534.0
166.07662963867188 833.0
167.09275817871094 201.0
168.05557250976562 124.0
174.09234619140625 329.0
175.0769500732422 6244.0
176.10903930664062 537.0
177.09371948242188 1337.0
178.08302307128906 1503.0
179.09197998046875 540.0
181.06556701660156 1337.0
182.07156372070312 682.0
183.08035278320312 843.0
189.07000732421875 413.0
190.08248901367188 976.0
191.08604431152344 1748.0
192.10195922851562 3403.0
193.10496520996094 1052.0
194.0734405517578 3293.0
195.07962036132812 483.0
196.08644104003906 397.0
197.0603790283203 337.0
199.07489013671875 123.0
201.07577514648438 317.0
202.08396911621094 204.0
206.11572265625 144.0
207.1263427734375 582.0
208.09085083007812 264.0
209.09616088867188 4060.0
210.06727600097656 276.0
211.11404418945312 1644.0
218.0725860595703 196.0
219.07884216308594 940.0
220.09158325195312 141.0
221.09622192382812 364.0
222.06968688964844 273.0
223.07252502441406 270.0
224.0839385986328 233.0
225.0597381591797 163.0
227.07479858398438 97.0
235.0763397216797 184.0
236.0843963623047 179.0
237.0946044921875 8133.0
238.09829711914062 391.0
239.10845947265625 879.0
240.0837860107422 239.0
241.0894317626953 163.0
251.1057586669922 258.0
253.11785888671875 134.0
254.094482421875 1139.0
269.1214294433594 13126.0
271.1349792480469 2010.0
282.15155029296875 174.0
283.1330261230469 140.0
299.15570068359375 117.0
313.215576171875 210.0
314.177490234375 67889.0

Name: Vicine
Precursor_mz: 305.1095537
Cas: 152-93-2
Adduct: [M+H]+
Mz: 305.1091753
Comment: Major
Smiles: Nc1nc(=O)c(O[C@@H]2O[C@H](CO)[C@@H](O)[C@H](O)[C@H]2O)c(N)[nH]1
Formula: C10H16N4O7
Mix: Alkaloids-pos-mix28
Rt: [0.345]
Rt_apex: 0.343282749
Rt_start: 0.315666667
Rt_end: 0.39635
Ms1_intensity: 650106
N_scnas: 16
Ms1_scan_range: [103, 109, 120]
Reci_snr: 0.000203343
Ms2_scan_idx: 178
Pmz_offset: 0.001242629
Entropy: 1.0000001192092896
Num Peaks: 20
43.01789093017578 120.0
45.04499816894531 4560.0
57.03093719482422 62.0
60.05544662475586 77.0
61.03053665161133 77.0
69.03349304199219 173.0
73.04039001464844 94.0
81.03662872314453 77.0
83.02447509765625 168.0
85.02735137939453 230.0
87.06718444824219 1596.0
97.02820587158203 97.0
98.0357666015625 108.0
101.03043365478516 176.0
113.04444885253906 62.0
115.05868530273438 62.0
125.04336547851562 174.0
126.03238677978516 207.0
143.0570831298828 35995.0
305.11224365234375 269.0

Name: Vicine
Precursor_mz: 327.0901076
Cas: 152-93-2
Adduct: [M+Na]+
Mz: 327.0911196
Comment: Major
Smiles: Nc1nc(=O)c(O[C@@H]2O[C@H](CO)[C@@H](O)[C@H](O)[C@H]2O)c(N)[nH]1
Formula: C10H16N4O7
Mix: Alkaloids-pos-mix28
Rt: [0.345]
Rt_apex: 0.353730545
Rt_start: 0.318333333
Rt_end: 0.3885
Ms1_intensity: 35042
N_scnas: 12
Ms1_scan_range: [104, 111, 117]
Reci_snr: 0.100823562
Ms2_scan_idx: 179
Pmz_offset: 0.0
Entropy: 0.9999999403953552
Num Peaks: 5
98.98011016845703 41.0
164.0320281982422 2286.0
165.0382843017578 373.0
207.04747009277344 31.0
327.0877685546875 901.0

Name: DL-Laudanosine
Precursor_mz: 358.2024319
Cas: 1699-51-0
Adduct: [M+H]+
Mz: 358.2012848
Comment: Major
Smiles: COc1ccc(CC2c3cc(OC)c(OC)cc3CCN2C)cc1OC
Formula: C21H27NO4
Mix: Alkaloids-pos-mix28
Rt: [2.552]
Rt_apex: 2.548554042
Rt_start: 2.448916667
Rt_end: 2.759733333
Ms1_intensity: 575258
N_scnas: 48
Ms1_scan_range: [624, 639, 673]
Reci_snr: 0.000124518
Ms2_scan_idx: 1217
Pmz_offset: 0.001318555
Entropy: 0.9971964359283447
Num Peaks: 59
91.05323028564453 914.0
105.06889343261719 264.0
106.03633117675781 202.0
107.0488510131836 2208.0
108.05596923828125 824.0
115.0526123046875 500.0
116.06184387207031 183.0
118.04014587402344 199.0
121.0628890991211 606.0
127.05054473876953 261.0
128.06173706054688 709.0
129.07057189941406 645.0
131.05029296875 478.0
133.06451416015625 192.0
135.0435333251953 651.0
136.0548858642578 594.0
143.04693603515625 1035.0
144.05577087402344 814.0
145.071533203125 991.0
146.0705108642578 567.0
148.07704162597656 223.0
150.0697479248047 880.0
151.07713317871094 17600.0
158.0731658935547 3590.0
159.03976440429688 1108.0
161.0832977294922 454.0
162.08941650390625 1514.0
163.0771484375 198.0
165.08868408203125 2020.0
173.08079528808594 228.0
174.06809997558594 3584.0
177.08419799804688 173.0
188.0831298828125 182.0
189.0929718017578 7078.0
190.08616638183594 5384.0
191.0916748046875 3112.0
192.1037139892578 458.0
193.11257934570312 179.0
206.11752319335938 29216.0
209.0939178466797 302.0
237.0965118408203 173.0
238.09371948242188 252.0
249.09036254882812 310.0
252.11834716796875 170.0
253.12429809570312 223.0
255.1377410888672 279.0
265.1211242675781 509.0
268.109130859375 172.0
269.12115478515625 508.0
281.1221008300781 1266.0
284.1419372558594 263.0
285.1102600097656 224.0
296.14111328125 1577.0
297.1199951171875 453.0
300.1368103027344 314.0
312.13580322265625 778.0
315.1554870605469 174.0
327.1612243652344 958.0
358.2052307128906 2112.0

Name: DL-Laudanosine
Precursor_mz: 380.1820683
Cas: 1699-51-0
Adduct: [M+Na]+
Mz: 380.1832291
Comment: Major
Smiles: COc1ccc(CC2c3cc(OC)c(OC)cc3CCN2C)cc1OC
Formula: C21H27NO4
Mix: Alkaloids-pos-mix28
Rt: [2.552]
Rt_apex: 2.548941829
Rt_start: 2.523583333
Rt_end: 2.58525
Ms1_intensity: 4608
N_scnas: 9
Ms1_scan_range: [635, 640, 645]
Reci_snr: 0.10304894
Ms2_scan_idx: 1190
Pmz_offset: 0.000107298
Entropy: 1.0
Num Peaks: 6
151.0754852294922 184.0
158.0714874267578 92.0
190.09014892578125 123.0
191.08982849121094 93.0
206.1176300048828 407.0
214.08294677734375 154.0

Name: (-)-Securinine
Precursor_mz: 218.1175933
Cas: 5610-40-2
Adduct: [M+H]+
Mz: 218.1175552
Comment: Major
Smiles: O=C1C=C2C=C[C@@H]3C[C@@]2(O1)[C@H]1CCCCN31
Formula: C13H15NO2
Mix: Alkaloids-pos-mix28
Rt: [0.605]
Rt_apex: 0.607742326
Rt_start: 0.523333333
Rt_end: 0.81995
Ms1_intensity: 1158392
N_scnas: 84
Ms1_scan_range: [158, 173, 243]
Reci_snr: 0.001428577
Ms2_scan_idx: 273
Pmz_offset: 0.001758639
Entropy: 0.9852542877197266
Num Peaks: 42
41.03934860229492 362.0
42.03422164916992 1091.0
55.055023193359375 3327.0
56.050777435302734 36997.0
65.03788757324219 217.0
67.05535125732422 1283.0
68.05191040039062 1104.0
69.05931854248047 394.0
77.04097747802734 250.0
79.05559539794922 253.0
80.0506820678711 465.0
82.06714630126953 6738.0
83.07583618164062 1271.0
84.08296203613281 231166.0
91.0575180053711 1724.0
103.0535888671875 276.0
105.07208251953125 301.0
115.05596160888672 658.0
117.05912017822266 571.0
118.06793975830078 480.0
127.0540771484375 447.0
128.06370544433594 810.0
129.06935119628906 1959.0
130.0693359375 1235.0
131.07318115234375 377.0
132.08248901367188 350.0
142.0771942138672 183.0
143.07757568359375 366.0
144.0814666748047 1089.0
145.10577392578125 180.0
146.09808349609375 428.0
147.0716552734375 541.0
155.08839416503906 187.0
158.0948028564453 333.0
159.10572814941406 184.0
162.0916748046875 1369.0
172.11338806152344 2389.0
174.12786865234375 828.0
190.0886688232422 818.0
200.10821533203125 944.0
217.45587158203125 166.0
218.12274169921875 84151.0

Name: 9-amino-CPT
Precursor_mz: 364.1295574
Cas: 91421-43-1
Adduct: [M+H]+
Mz: 364.1291825
Comment: Major
Smiles: CC[C@@]1(O)C(=O)OCc2c1cc1n(c2=O)Cc2cc3c(N)cccc3nc2-1
Formula: C20H17N3O4
Mix: Alkaloids-pos-mix28
Rt: [2.682]
Rt_apex: 2.681535539
Rt_start: 2.592883333
Rt_end: 3.1287
Ms1_intensity: 555014
N_scnas: 80
Ms1_scan_range: [648, 661, 729]
Reci_snr: 0.000176647
Ms2_scan_idx: 1332
Pmz_offset: 0.000561269
Entropy: 0.9999998807907104
Num Peaks: 36
57.03409957885742 174.0
181.0805206298828 180.0
183.0802001953125 1955.0
184.0860595703125 252.0
193.0736083984375 176.0
196.09805297851562 518.0
218.0806884765625 256.0
219.09527587890625 833.0
220.0893096923828 1636.0
221.102294921875 983.0
232.09487915039062 267.0
233.09866333007812 738.0
234.10675048828125 5198.0
235.11058044433594 3183.0
236.120849609375 1128.0
246.09832763671875 243.0
247.0811767578125 376.0
248.11903381347656 295.0
249.1324920654297 186.0
250.09918212890625 381.0
259.11627197265625 249.0
261.0943908691406 1066.0
262.0953369140625 1135.0
263.109619140625 4126.0
264.1189880371094 1829.0
274.1331481933594 233.0
275.1261901855469 228.0
277.1153259277344 303.0
290.13922119140625 293.0
292.14825439453125 1311.0
304.12017822265625 180.0
307.1009216308594 303.0
318.1246643066406 425.0
320.1452941894531 12720.0
335.0876770019531 818.0
364.13128662109375 7495.0

Name: Evolitrine
Precursor_mz: 230.0810749
Cas: 523-66-0
Adduct: [M+H]+
Mz: 230.0811697
Comment: Major
Smiles: COc1ccc2c(OC)c3ccoc3nc2c1
Formula: C13H11NO3
Mix: Alkaloids-pos-mix28
Rt: [3.805]
Rt_apex: 3.803786961
Rt_start: 3.76115
Rt_end: 6.650683333
Ms1_intensity: 10127908
N_scnas: 690
Ms1_scan_range: [835, 842, 1526]
Reci_snr: 0.000147611
Ms2_scan_idx: 1918
Pmz_offset: 0.001076565
Entropy: 0.9862733483314514
Num Peaks: 83
43.01604461669922 478.0
52.016868591308594 393.0
53.036991119384766 232.0
63.02432632446289 590.0
65.03998565673828 361.0
76.0279312133789 361.0
77.0370864868164 2573.0
78.04669952392578 2169.0
79.05290222167969 420.0
81.03282928466797 180.0
89.03848266601562 29922.0
90.03839874267578 569.0
91.05326843261719 427.0
92.02266693115234 534.0
100.02860260009766 93.0
101.0374755859375 1328.0
102.04574584960938 16714.0
103.05189514160156 6268.0
104.0472412109375 891.0
105.03585815429688 222.0
106.04071044921875 626.0
107.04743957519531 1655.0
108.0574722290039 267.0
113.03548431396484 392.0
114.04783630371094 410.0
115.05115509033203 1644.0
116.04978942871094 71868.0
117.03301239013672 2432.0
118.03105163574219 479.0
120.04137420654297 437.0
121.06448364257812 93.0
122.06092071533203 382.0
125.05905151367188 93.0
127.04268646240234 604.0
128.04908752441406 8087.0
129.057861328125 62975.0
130.0657958984375 56911.0
131.07444763183594 3058.0
132.0563507080078 906.0
133.0548553466797 317.0
134.03762817382812 559.0
135.0452117919922 405.0
140.05172729492188 1118.0
141.0583038330078 1718.0
142.06346130371094 572.0
143.03524780273438 1900.0
144.0457305908203 91388.0
145.06483459472656 857.0
146.02139282226562 440.0
148.03440856933594 351.0
149.04522705078125 506.0
150.05604553222656 3099.0
156.04193115234375 915.0
157.0532989501953 27827.0
158.06088256835938 126726.0
159.06814575195312 276755.0
160.03067016601562 332.0
162.0555419921875 383.0
168.04637145996094 1384.0
169.05389404296875 2078.0
170.06077575683594 1049.0
171.03025817871094 1086.0
172.04115295410156 55762.0
173.04579162597656 162.0
174.08853149414062 2219.0
176.0381622314453 526.0
184.07467651367188 926.0
185.04698181152344 3598.0
186.0563201904297 145804.0
187.06454467773438 91533.0
191.06069946289062 534.0
197.04843139648438 211.0
198.0563507080078 921.0
199.0609130859375 369.0
200.03427124023438 17488.0
202.08384704589844 1856.0
212.032470703125 431.0
214.05006408691406 10621.0
215.05935668945312 732274.0
229.38128662109375 1149.0
230.08322143554688 427907.0
231.0762481689453 164.0
231.22560119628906 164.0

Name: Evolitrine
Precursor_mz: 230.0804767
Cas: 523-66-0
Adduct: [M+H]+
Mz: 230.0811697
Comment: Minor
Smiles: COc1ccc2c(OC)c3ccoc3nc2c1
Formula: C13H11NO3
Mix: Alkaloids-pos-mix28
Rt: [3.805]
Rt_apex: 3.736348305
Rt_start: 3.692433333
Rt_end: 3.76115
Ms1_intensity: 38328
N_scnas: 10
Ms1_scan_range: [824, 831, 835]
Reci_snr: 0.017163943
Ms2_scan_idx: 1898
Pmz_offset: 0.000478371
Entropy: 0.8722021579742432
Num Peaks: 18
89.03584289550781 191.0
101.03890228271484 93.0
102.04859161376953 349.0
116.05282592773438 234.0
128.04751586914062 176.0
129.05628967285156 532.0
130.06581115722656 514.0
140.05340576171875 123.0
144.0440673828125 390.0
156.043701171875 123.0
157.05331420898438 123.0
168.04820251464844 92.0
174.09596252441406 93.0
185.0508270263672 1844.0
187.06265258789062 465.0
214.05213928222656 4777.0
215.0696563720703 1316.0
230.08963012695312 1148.0

Name: N-Methylbenzylamine
Precursor_mz: 122.0954009
Cas: 103-67-3
Adduct: [M+H]+
Mz: 122.0964258
Comment: Major
Smiles: CNCc1ccccc1
Formula: C8H11N
Mix: Alkaloids-pos-mix28
Rt: nan
Rt_apex: 1.31198244
Rt_start: 1.1739
Rt_end: 1.6928
Ms1_intensity: 6064
N_scnas: 115
Ms1_scan_range: [374, 413, 490]
Reci_snr: 0.174169703
Ms2_scan_idx: 538
Pmz_offset: 0.000360107
Entropy: 1.0000001192092896
Num Peaks: 9
41.03929138183594 92.0
53.04216384887695 93.0
77.03964233398438 154.0
79.05548858642578 195.0
106.06395721435547 353.0
107.07225036621094 154.0
120.08149719238281 93.0
121.09087371826172 154.0
122.09828186035156 576.0

Name: N-Methylbenzylamine
Precursor_mz: 122.0946077
Cas: 103-67-3
Adduct: [M+H]+
Mz: 122.0964258
Comment: isomer
Smiles: CNCc1ccccc1
Formula: C8H11N
Mix: Alkaloids-pos-mix28
Rt: nan
Rt_apex: 9.503086913
Rt_start: 9.47285
Rt_end: 9.846616667
Ms1_intensity: 4729
N_scnas: 60
Ms1_scan_range: [2152, 2156, 2213]
Reci_snr: 0.115227093
Ms2_scan_idx: 3885
Pmz_offset: 0.000433116
Entropy: 0.9999999403953552
Num Peaks: 12
41.03923797607422 93.0
42.03410720825195 123.0
51.023681640625 93.0
53.03902816772461 154.0
77.0383071899414 333.0
79.05538177490234 564.0
80.05171966552734 93.0
106.06815338134766 313.0
107.0706558227539 189.0
120.08441162109375 92.0
121.0876235961914 154.0
122.09811401367188 316.0

Name: Dobutamine hydrochloride
Precursor_mz: 302.1763724
Cas: 49745-95-1
Adduct: [M+H]+
Mz: 302.1750701
Comment: Major
Smiles: CC(CCc1ccc(O)cc1)NCCc1ccc(O)c(O)c1
Formula: C18H23NO3
Mix: Alkaloids-pos-mix28
Rt: [2.101]
Rt_apex: 2.096297065
Rt_start: 1.956616667
Rt_end: 2.332933333
Ms1_intensity: 2296704
N_scnas: 61
Ms1_scan_range: [544, 570, 606]
Reci_snr: 0.000100361
Ms2_scan_idx: 930
Pmz_offset: 0.002493637
Entropy: 0.9925007224082947
Num Peaks: 26
41.037479400634766 193.0
50.01630783081055 93.0
51.02373504638672 1056.0
53.03805923461914 239.0
55.01744842529297 539.0
58.06682205200195 7727.0
65.04116821289062 3668.0
77.03961944580078 15414.0
79.05546569824219 5233.0
81.06954193115234 1662.0
91.0560302734375 218508.0
94.04090118408203 475.0
95.04792022705078 409.0
106.0624771118164 93.0
107.0504379272461 649118.0
109.06354522705078 5438.0
119.0502700805664 104491.0
135.04859924316406 191.0
137.06198120117188 350513.0
149.0950469970703 2179.0
152.0690460205078 189.0
154.09182739257812 4071.0
165.09429931640625 220.0
166.1237030029297 7177.0
178.1223907470703 184.0
302.1804504394531 43840.0

Name: Galanthamine
Precursor_mz: 288.1592186
Cas: 357-70-0
Adduct: [M+H]+
Mz: 288.15942
Comment: Major
Smiles: COc1ccc2c3c1O[C@H]1C[C@@H](O)C=C[C@@]31CCN(C)C2
Formula: C17H21NO3
Mix: Alkaloids-pos-mix29
Rt: [2.289]
Rt_apex: 1.462546572
Rt_start: 1.427016667
Rt_end: 1.61875
Ms1_intensity: 2307
N_scnas: 31
Ms1_scan_range: [403, 409, 435]
Reci_snr: 0.018227179
Ms2_scan_idx: 623
Pmz_offset: 0.001574063
Entropy: 0.9999998807907104
Num Peaks: 3
175.0713348388672 62.0
198.0702362060547 93.0
213.080078125 92.0

Name: Deserpidine
Precursor_mz: 579.2717686
Cas: 131-01-1
Adduct: [M+H]+
Mz: 579.2700926
Comment: Major
Smiles: COC(=O)[C@H]1[C@H]2C[C@@H]3c4[nH]c5ccccc5c4CCN3C[C@H]2C[C@@H](OC(=O)c2cc(OC)c(OC)c(OC)c2)[C@@H]1OC
Formula: C32H38N2O8
Mix: Alkaloids-pos-mix29
Rt: [3.729]
Rt_apex: 3.727554471
Rt_start: 3.627533333
Rt_end: 4.76045
Ms1_intensity: 5933088
N_scnas: 213
Ms1_scan_range: [753, 769, 967]
Reci_snr: 6.86e-05
Ms2_scan_idx: 1923
Pmz_offset: 0.003557496
Entropy: 0.953633725643158
Num Peaks: 218
42.033180236816406 254.0
44.050262451171875 748.0
45.0327262878418 196.0
53.03900909423828 201.0
56.050601959228516 259.0
68.05169677734375 342.0
71.04878997802734 581.0
75.04605102539062 199.0
77.03827667236328 1653.0
79.0541000366211 1398.0
80.04917907714844 458.0
81.03404998779297 659.0
82.06307983398438 234.0
89.03975677490234 315.0
91.05455780029297 2385.0
93.06888580322266 733.0
94.06661987304688 2137.0
95.05052185058594 249.0
96.05741882324219 768.0
97.06685638427734 367.0
101.05858612060547 172.0
103.05184173583984 650.0
105.07319641113281 657.0
106.06522369384766 1448.0
107.04447937011719 422.0
108.05595397949219 931.0
109.06485748291016 2223.0
111.04496765136719 3566.0
113.060791015625 559.0
115.0541000366211 3216.0
116.06182098388672 519.0
117.06786346435547 4313.0
118.06300354003906 4110.0
119.08531951904297 293.0
120.08282470703125 1505.0
121.0289077758789 632.0
122.03604888916016 1350.0
123.08161926269531 1949.0
124.05348205566406 2051.0
127.0536880493164 1757.0
128.0648956298828 956.0
129.06736755371094 1243.0
130.0641326904297 6515.0
131.07598876953125 903.0
132.08045959472656 3685.0
133.06773376464844 392.0
134.0359344482422 638.0
135.08265686035156 546.0
137.0240020751953 733.0
139.07681274414062 7507.0
142.06504821777344 520.0
143.07545471191406 4536.0
144.08270263671875 263218.0
145.0596923828125 352.0
146.09423828125 2502.0
147.08140563964844 638.0
148.0736083984375 213.0
149.06056213378906 1234.0
151.0408935546875 1099.0
152.04806518554688 8368.0
154.06373596191406 1178.0
155.0704345703125 830.0
156.08216857910156 4186.0
157.09190368652344 591.0
158.09608459472656 12646.0
159.08929443359375 774.0
160.07496643066406 3385.0
161.06011962890625 347.0
162.09117126464844 310.0
163.07354736328125 799.0
164.10562133789062 1177.0
166.09271240234375 617.0
167.07078552246094 14604.0
168.08448791503906 2159.0
169.079345703125 1520.0
170.09727478027344 12516.0
171.0962371826172 2789.0
172.08155822753906 1020.0
174.09214782714844 441.0
175.07675170898438 1335.0
176.11068725585938 339.0
177.093505859375 264.0
178.0884246826172 702.0
179.07298278808594 461.0
180.07720947265625 1374.0
181.08424377441406 1140.0
182.09597778320312 3197.0
183.1010284423828 545.0
184.0993194580078 1242.0
185.10989379882812 22875.0
187.08363342285156 250.0
190.0900115966797 1695.0
192.1036834716797 45741.0
193.08914184570312 1123.0
194.0966796875 2211.0
195.067626953125 780060.0
196.1156768798828 1414.0
197.10545349121094 3877.0
198.12339782714844 388.0
199.1281280517578 2336.0
202.0877227783203 169.0
204.09963989257812 4731.0
205.0992889404297 315.0
206.0953369140625 1092.0
207.099853515625 1325.0
208.11085510253906 2123.0
209.10809326171875 709.0
210.1158447265625 605.0
211.1260223388672 208.0
216.09771728515625 305.0
217.0911407470703 1225.0
218.09512329101562 1377.0
219.099365234375 650.0
220.11422729492188 1734.0
221.1084747314453 2981.0
222.11752319335938 2715.0
223.12677001953125 5635.0
224.12989807128906 21156.0
225.10580444335938 502.0
228.101318359375 209.0
230.1043701171875 728.0
231.10385131835938 1069.0
232.11190795898438 2992.0
233.12001037597656 551.0
234.11956787109375 1345.0
235.1234130859375 7054.0
236.13156127929688 29146.0
237.1353759765625 1373.0
238.14349365234375 338.0
240.1009063720703 198.0
242.10125732421875 455.0
243.1067352294922 768.0
244.10772705078125 1501.0
245.1239471435547 441.0
246.1290740966797 6413.0
247.12742614746094 1428.0
248.14547729492188 528.0
249.14126586914062 1242.0
250.1124267578125 197.0
251.1566162109375 1096.0
254.13668823242188 537.0
256.1339111328125 955.0
257.13433837890625 610.0
258.127685546875 4337.0
259.1342468261719 675.0
260.1133728027344 1367.0
261.1441955566406 941.0
262.1225280761719 386.0
263.1231994628906 238.0
264.1348571777344 522.0
267.1494445800781 194.0
268.11370849609375 311.0
271.1046142578125 175.0
272.1014404296875 715.0
273.1487731933594 260.0
274.12841796875 4245.0
275.1610107421875 3365.0
276.16058349609375 636.0
277.14093017578125 276.0
278.1651306152344 918.0
280.1346740722656 296.0
285.1434020996094 304.0
286.1205749511719 1767.0
288.1370849609375 339.0
289.107421875 244.0
290.1534729003906 329.0
291.1583557128906 153.0
292.1337585449219 3391.0
293.1324157714844 256.0
294.15203857421875 362.0
303.1492919921875 5922.0
304.1396789550781 710.0
305.1659851074219 368.0
306.15228271484375 13164.0
307.1770935058594 3486.0
308.1715393066406 240.0
309.15777587890625 549.0
311.1868896484375 184.0
317.16912841796875 931.0
318.15460205078125 5156.0
319.1491394042969 393.0
320.1427001953125 375.0
324.15765380859375 1033.0
333.1662292480469 676.0
334.14544677734375 553.0
335.177490234375 149518.0
336.1622314453125 622.0
337.19219970703125 210.0
338.17730712890625 9544.0
339.171630859375 567.0
349.20538330078125 1250.0
350.1789855957031 2609.0
351.1776123046875 874.0
365.18701171875 621.0
366.0805969238281 1363.0
366.1960754394531 344.0
367.2065124511719 568722.0
383.202880859375 2939.0
402.1673583984375 507.0
404.1820983886719 862.0
416.1672058105469 318.0
434.1910095214844 1060.0
436.1963806152344 6731.0
448.2038879394531 15963.0
515.20654296875 483.0
529.2528076171875 532.0
545.2233276367188 179.0
547.2503051757812 40147.0
551.2462768554688 348.0
561.2649536132812 660.0
562.2528686523438 222.0
563.2449340820312 253.0
579.27734375 706837.0
580.5311279296875 1784.0
580.6900634765625 2234.0
580.9234619140625 347.0
581.0858154296875 606.0
581.2244873046875 217.0

Name: Deserpidine
Precursor_mz: 601.2554544
Cas: 131-01-1
Adduct: [M+Na]+
Mz: 601.2520369
Comment: Major
Smiles: COC(=O)[C@H]1[C@H]2C[C@@H]3c4[nH]c5ccccc5c4CCN3C[C@H]2C[C@@H](OC(=O)c2cc(OC)c(OC)c(OC)c2)[C@@H]1OC
Formula: C32H38N2O8
Mix: Alkaloids-pos-mix29
Rt: [3.729]
Rt_apex: 3.722819021
Rt_start: 3.678016667
Rt_end: 3.874166667
Ms1_intensity: 29749
N_scnas: 29
Ms1_scan_range: [762, 768, 792]
Reci_snr: 0.002180854
Ms2_scan_idx: 1917
Pmz_offset: 0.001725641
Entropy: 0.9999998807907104
Num Peaks: 8
303.1566162109375 123.0
335.1800537109375 215.0
357.1727294921875 154.0
367.219970703125 92.0
389.18182373046875 92.0
537.2051391601562 92.0
569.2290649414062 749.0
601.2643432617188 1744.0

Name: Senecionine
Precursor_mz: 336.1810175
Cas: 130-01-8
Adduct: [M+H]+
Mz: 336.1805494
Comment: Major
Smiles: C/C=C1/C[C@@H](C)[C@@](C)(O)C(=O)OCC2=CCN3CC[C@@H](OC1=O)[C@@H]23
Formula: C18H25NO5
Mix: Alkaloids-pos-mix29
Rt: [2.261]
Rt_apex: 2.262289917
Rt_start: 2.1823
Rt_end: 2.661016667
Ms1_intensity: 1864031
N_scnas: 70
Ms1_scan_range: [528, 540, 599]
Reci_snr: 0.000205509
Ms2_scan_idx: 1036
Pmz_offset: 0.000436004
Entropy: 0.9925698637962341
Num Peaks: 93
41.03829574584961 2594.0
42.03406524658203 1940.0
43.01875686645508 18512.0
44.050235748291016 455.0
51.02262878417969 519.0
53.03999710083008 2333.0
54.03394317626953 406.0
55.05585861206055 2909.0
56.05057144165039 928.0
57.03298568725586 496.0
59.04822540283203 1114.0
65.0410385131836 1592.0
67.053955078125 12416.0
68.05049896240234 5305.0
69.03340911865234 651.0
70.06211853027344 217.0
71.04874420166016 426.0
77.04069519042969 8549.0
78.03421020507812 1790.0
79.0540542602539 6782.0
80.05164337158203 12674.0
81.07064056396484 6456.0
82.0655746459961 6847.0
83.04866790771484 1242.0
84.04405212402344 1226.0
85.06477355957031 463.0
86.05911254882812 454.0
91.05450439453125 20264.0
92.04949188232422 3865.0
93.06883239746094 13078.0
94.0652084350586 78867.0
95.0860366821289 1231.0
96.08349609375 20056.0
97.0626449584961 461.0
99.04283142089844 418.0
101.06134796142578 708.0
103.05462646484375 9239.0
104.04998016357422 560.0
105.0659408569336 3414.0
106.06515502929688 2955.0
107.08507537841797 9642.0
108.0806884765625 10281.0
109.0677261352539 1819.0
110.09605407714844 5165.0
111.08039093017578 596.0
112.07357025146484 537.0
115.05403137207031 345.0
117.06779479980469 532.0
118.06597900390625 9992.0
119.07453155517578 1545.0
120.08275604248047 95113.0
121.08905029296875 2263.0
122.09799194335938 9862.0
124.07528686523438 209.0
125.09657287597656 6492.0
129.0720672607422 171.0
132.08038330078125 274.0
134.09759521484375 526.0
135.08094787597656 2477.0
136.0777130126953 891.0
137.09620666503906 776.0
138.0921173095703 63025.0
139.09825134277344 500.0
140.1080322265625 1931.0
146.0992431640625 484.0
147.08302307128906 191.0
148.111083984375 494.0
149.09817504882812 213.0
150.09542846679688 170.0
153.0914764404297 8268.0
154.0897674560547 373.0
156.099609375 1987.0
158.0959930419922 170.0
160.11572265625 601.0
163.0770263671875 285.0
174.1253662109375 212.0
179.0315704345703 300.0
181.0897979736328 282.0
206.111328125 182.0
220.13282775878906 3629.0
221.1479949951172 209.0
236.1314239501953 296.0
238.1433563232422 902.0
248.17185974121094 649.0
274.18402099609375 462.0
290.1820068359375 1761.0
292.19354248046875 830.0
308.19354248046875 41883.0
335.1490173339844 1620.0
336.187744140625 368144.0
337.18426513671875 161.0
337.3388977050781 153.0
337.5683288574219 202.0

Name: Senecionine
Precursor_mz: 358.1624168
Cas: 130-01-8
Adduct: [M+Na]+
Mz: 358.1624936
Comment: Major
Smiles: C/C=C1/C[C@@H](C)[C@@](C)(O)C(=O)OCC2=CCN3CC[C@@H](OC1=O)[C@@H]23
Formula: C18H25NO5
Mix: Alkaloids-pos-mix29
Rt: [2.261]
Rt_apex: 2.258826517
Rt_start: 2.2238
Rt_end: 2.284283333
Ms1_intensity: 3203
N_scnas: 8
Ms1_scan_range: [534, 539, 543]
Reci_snr: 0.045882775
Ms2_scan_idx: 1038
Pmz_offset: 0.001071669
Entropy: 1.0000001192092896
Num Peaks: 5
77.0382308959961 123.0
93.07154083251953 93.0
94.06111907958984 123.0
120.07814025878906 199.0
358.16778564453125 92.0

Name: Chloroquine
Precursor_mz: 320.189012
Cas: 54-05-7
Adduct: [M+H]+
Mz: 320.188802
Comment: Major
Smiles: CCN(CC)CCCC(C)Nc1ccnc2cc(Cl)ccc12
Formula: C18H26ClN3
Mix: Alkaloids-pos-mix29
Rt: [1.793]
Rt_apex: 1.784195153
Rt_start: 1.74865
Rt_end: 2.202966667
Ms1_intensity: 824459
N_scnas: 74
Ms1_scan_range: [456, 461, 531]
Reci_snr: 0.001295988
Ms2_scan_idx: 796
Pmz_offset: 0.001201785
Entropy: 0.9361312389373779
Num Peaks: 40
41.03833770751953 7287.0
58.065696716308594 1913.0
69.06962585449219 7963.0
72.07807922363281 520.0
74.09599304199219 4461.0
84.07759094238281 999.0
100.11421966552734 775.0
114.12726593017578 592.0
116.04977416992188 661.0
117.0557632446289 640.0
128.0474853515625 321.0
129.05784606933594 648.0
138.0098114013672 296.0
140.14306640625 498.0
142.16046142578125 71896.0
143.0570526123047 656.0
144.0692901611328 2920.0
151.02197265625 229.0
155.0600128173828 1595.0
156.06996154785156 6121.0
162.01263427734375 769.0
163.0144805908203 1988.0
164.0283966064453 6304.0
169.07394409179688 200.0
177.03382873535156 861.0
178.03231811523438 2027.0
179.03738403320312 62147.0
190.03204345703125 334.0
191.0373992919922 41211.0
192.04930114746094 929.0
203.03651428222656 1491.0
204.04359436035156 892.0
205.0531463623047 10197.0
206.0511016845703 376.0
217.0540008544922 244.0
219.07244873046875 273.0
247.10325622558594 256958.0
249.11036682128906 187.0
319.2169494628906 92.0
320.19305419921875 17533.0

Name: Chloroquine
Precursor_mz: 320.1859552
Cas: 54-05-7
Adduct: [M+H]+
Mz: 320.188802
Comment: isomer
Smiles: CCN(CC)CCCC(C)Nc1ccnc2cc(Cl)ccc12
Formula: C18H26ClN3
Mix: Alkaloids-pos-mix29
Rt: [1.793]
Rt_apex: 2.235208389
Rt_start: 2.202966667
Rt_end: 2.316783333
Ms1_intensity: 29196
N_scnas: 16
Ms1_scan_range: [531, 536, 548]
Reci_snr: 0.049751165
Ms2_scan_idx: 1019
Pmz_offset: 0.001855038
Entropy: 1.0
Num Peaks: 15
41.03739929199219 212.0
58.067779541015625 93.0
69.07072448730469 154.0
74.0959243774414 93.0
86.09426879882812 786.0
98.0968017578125 123.0
142.16200256347656 1257.0
156.07156372070312 154.0
164.0264434814453 154.0
179.0409698486328 1138.0
191.03916931152344 859.0
203.03433227539062 93.0
205.05697631835938 172.0
247.10081481933594 3039.0
320.19525146484375 818.0

Name: Harringtonine
Precursor_mz: 554.2339834
Cas: 26833-85-2
Adduct: [M+Na]+
Mz: 554.2360525
Comment: Major
Smiles: COC(=O)C[C@](O)(CCC(C)(C)O)C(=O)O[C@@H]1C(OC)=C[C@]23CCCN2CCc2cc4c(cc2[C@H]13)OCO4
Formula: C28H37NO9
Mix: Alkaloids-pos-mix29
Rt: [2.289]
Rt_apex: 2.295815125
Rt_start: 2.25145
Rt_end: 2.464433333
Ms1_intensity: 57388
N_scnas: 31
Ms1_scan_range: [538, 545, 570]
Reci_snr: 0.001021865
Ms2_scan_idx: 1081
Pmz_offset: 4.94e-05
Entropy: 1.0
Num Peaks: 13
120.08125305175781 360.0
126.09214782714844 521.0
150.09202575683594 2215.0
173.05487060546875 288.0
226.090087890625 154.0
227.093505859375 671.0
229.1006317138672 93.0
236.10992431640625 93.0
251.10317993164062 93.0
257.10052490234375 250.0
266.1181945800781 1729.0
298.1463928222656 16149.0
554.241943359375 2456.0

Name: Benzoylmesaconine
Precursor_mz: 590.2967441
Cas: 63238-67-5
Adduct: [M+H]+
Mz: 590.295973
Comment: Major
Smiles: COC[C@]12CN(C)C3[C@@H]4[C@H](OC)[C@H]1[C@@]3([C@@H](OC)C[C@H]2O)[C@@H]1C[C@]2(O)[C@@H](OC)[C@H](O)[C@@]4(O)[C@H]1[C@H]2OC(=O)c1ccccc1
Formula: C31H43NO10
Mix: Alkaloids-pos-mix29
Rt: [2.82]
Rt_apex: 2.820978211
Rt_start: 2.77025
Rt_end: 3.500866667
Ms1_intensity: 15998430
N_scnas: 114
Ms1_scan_range: [618, 626, 733]
Reci_snr: 0.000126965
Ms2_scan_idx: 1424
Pmz_offset: 0.002598702
Entropy: 0.8938184380531311
Num Peaks: 493
41.03739929199219 103.0
42.03315734863281 889.0
44.0493049621582 12904.0
45.0327033996582 1063.0
51.02263259887695 443.0
53.03795623779297 92.0
55.016300201416016 140.0
56.0484733581543 165.0
58.06350326538086 555.0
59.05038833618164 113.0
67.05281066894531 172.0
69.03224182128906 154.0
70.06446838378906 1066.0
71.04875183105469 477.0
74.05968475341797 1124.0
75.0435791015625 2680.0
77.0382308959961 7738.0
79.05281066894531 1190.0
80.0478744506836 180.0
81.03147888183594 365.0
82.06558227539062 1241.0
83.0435562133789 127.0
84.08265686035156 392.0
85.0285415649414 2697.0
86.06172180175781 299.0
87.04351806640625 468.0
88.07565307617188 981.0
91.05584716796875 1365.0
93.06613159179688 177.0
94.0652084350586 3078.0
95.04910278320312 805.0
96.08074951171875 579.0
97.0267105102539 651.0
98.0606689453125 541.0
99.04143524169922 282.0
100.07341003417969 465.0
101.05852508544922 215.0
103.05320739746094 416.0
105.03286743164062 217431.0
106.0651626586914 206.0
107.07200622558594 791.0
108.08069610595703 2790.0
109.0662612915039 1711.0
110.05777740478516 422.0
111.08039855957031 570.0
112.07505798339844 364.0
113.06072998046875 199.0
114.08818054199219 372.0
115.051025390625 822.0
116.0572280883789 182.0
117.0662841796875 773.0
118.06598663330078 265.0
119.0469741821289 389.0
120.08122253417969 699.0
121.06434631347656 1610.0
122.05613708496094 424.0
123.044189453125 2511.0
124.07217407226562 1236.0
125.02281951904297 3094.0
126.09053802490234 673.0
127.05203247070312 287.0
128.0616455078125 847.0
129.06887817382812 2842.0
130.06085205078125 153.0
131.0839385986328 929.0
132.07716369628906 616.0
133.06280517578125 449.0
134.09597778320312 378.0
135.07606506347656 848.0
136.07608032226562 427.0
137.0584259033203 994.0
138.0921173095703 7634.0
139.0370330810547 675.0
140.10638427734375 1139.0
141.07147216796875 1599.0
142.07333374023438 308.0
143.08377075195312 1299.0
144.08262634277344 1206.0
145.06468200683594 1038.0
146.09585571289062 999.0
147.07962036132812 859.0
148.07693481445312 249.0
149.05877685546875 404.0
150.09027099609375 247.0
151.03907775878906 293.0
152.0618133544922 435.0
153.07412719726562 1481.0
154.07933044433594 650.0
155.08607482910156 4634.0
156.099609375 417.0
157.06016540527344 950.0
158.09423828125 1438.0
159.07859802246094 2047.0
160.11395263671875 350.0
161.0938720703125 815.0
162.0893096923828 655.0
163.07525634765625 381.0
164.109130859375 459.0
165.0723419189453 1332.0
166.07815551757812 777.0
167.085205078125 2845.0
168.1025848388672 2140.0
169.09750366210938 1198.0
170.09718322753906 3631.0
171.0832977294922 1755.0
172.1109161376953 1992.0
173.09359741210938 946.0
174.08648681640625 500.0
175.07479858398438 374.0
176.10687255859375 1944.0
177.11209106445312 346.0
178.07708740234375 642.0
179.08790588378906 2010.0
180.0902862548828 397.0
181.0992431640625 1446.0
182.0958709716797 1094.0
183.08193969726562 1218.0
184.11065673828125 2022.0
185.09451293945312 3040.0
186.09439086914062 1207.0
187.10848999023438 1901.0
188.10609436035156 938.0
189.08705139160156 448.0
190.08023071289062 650.0
191.08766174316406 1836.0
192.09190368652344 478.0
193.10269165039062 1788.0
194.10047912597656 479.0
195.0812530517578 1430.0
196.1116485595703 2584.0
197.10140991210938 1614.0
198.123291015625 2863.0
199.11019897460938 861.0
200.11146545410156 604.0
201.0913543701172 615.0
202.12152099609375 1215.0
203.08831787109375 1529.0
204.0915069580078 595.0
205.0991668701172 4129.0
206.09320068359375 264.0
207.08358764648438 1457.0
208.08847045898438 488.0
209.09378051757812 2817.0
210.09132385253906 426.0
211.10755920410156 934.0
212.10784912109375 640.0
213.0941162109375 901.0
214.12168884277344 868.0
215.08587646484375 1105.0
216.09759521484375 431.0
217.0992889404297 2148.0
218.07427978515625 417.0
219.08262634277344 1263.0
220.09327697753906 510.0
221.09375 2525.0
222.1153106689453 506.0
223.10987854003906 2135.0
224.11717224121094 506.0
225.09304809570312 1232.0
226.12379455566406 544.0
227.1061248779297 787.0
228.13511657714844 749.0
229.10269165039062 730.0
230.1510772705078 752.0
231.09732055664062 686.0
232.0989532470703 584.0
233.09417724609375 4942.0
234.10226440429688 682.0
235.1146697998047 2771.0
236.10986328125 973.0
237.1157989501953 1148.0
238.12387084960938 529.0
239.11021423339844 980.0
240.09642028808594 379.0
241.12606811523438 634.0
242.11422729492188 331.0
243.0759735107422 569.0
244.08786010742188 430.0
245.09963989257812 2529.0
246.13113403320312 443.0
247.11404418945312 2135.0
248.1431427001953 674.0
249.12120056152344 1158.0
250.1189422607422 1036.0
251.10533142089844 2857.0
252.13377380371094 762.0
253.11965942382812 1130.0
254.1253662109375 528.0
255.1240997314453 569.0
256.1337890625 298.0
257.1162109375 394.0
258.123046875 651.0
259.1092834472656 614.0
260.1018981933594 338.0
261.096435546875 2499.0
262.1201171875 676.0
263.10711669921875 2088.0
264.1347351074219 755.0
265.1209411621094 2745.0
266.1524658203125 397.0
267.13555908203125 755.0
268.1273498535156 492.0
269.1209716796875 623.0
270.1533203125 293.0
271.1252746582031 311.0
272.1221008300781 187.0
273.08599853515625 695.0
274.1329040527344 310.0
275.1096496582031 1704.0
276.1394348144531 1750.0
277.1244201660156 1767.0
278.12286376953125 401.0
279.106689453125 1459.0
280.1321716308594 647.0
281.1148376464844 892.0
282.1463623046875 521.0
283.1325378417969 955.0
284.1512145996094 257.0
285.1219177246094 291.0
286.1251525878906 534.0
287.10638427734375 295.0
288.1297607421875 173.0
289.1167907714844 430.0
290.1533203125 340.0
291.1054992675781 760.0
292.1311950683594 1836.0
293.1202392578125 3843.0
294.1518859863281 1006.0
295.1371154785156 1132.0
296.1698913574219 346.0
297.1463928222656 650.0
298.1366271972656 233.0
299.1236267089844 223.0
300.15606689453125 278.0
301.14398193359375 194.0
302.118896484375 119.0
303.12469482421875 234.0
304.1321716308594 1894.0
305.1217041015625 997.0
306.1545715332031 536.0
307.13018798828125 713.0
308.1689147949219 1023.0
309.145263671875 500.0
310.14044189453125 602.0
311.1297912597656 1456.0
312.1678161621094 440.0
313.1405334472656 457.0
314.1744384765625 196.0
315.1353454589844 166.0
316.152587890625 180.0
317.1314697265625 97.0
318.1494140625 445.0
319.12890625 174.0
321.15020751953125 236.0
322.1418151855469 1203.0
323.12994384765625 574.0
324.157470703125 600.0
325.1410827636719 1572.0
326.1743469238281 749.0
327.1508483886719 468.0
328.15423583984375 458.0
329.1566162109375 232.0
330.17327880859375 313.0
331.1736145019531 184.0
332.14990234375 88.0
336.1594543457031 2487.0
337.1507873535156 499.0
338.14617919921875 219.0
339.1611022949219 250.0
340.1827087402344 453.0
341.154052734375 283.0
342.1708679199219 521.0
343.1502380371094 1177.0
344.1882629394531 370.0
345.1678771972656 127.0
346.16717529296875 161.0
350.1788024902344 303.0
352.1590576171875 199.0
353.1631164550781 198.0
354.1712951660156 2710.0
355.1570739746094 571.0
356.1759948730469 260.0
357.1645812988281 243.0
358.2102966308594 490.0
359.17242431640625 119.0
360.17578125 555.0
362.2001037597656 183.0
365.1170959472656 107.0
366.14483642578125 164.0
367.1283264160156 127.0
368.19122314453125 1667.0
369.1531677246094 241.0
370.1568603515625 379.0
371.1565246582031 118.0
372.18731689453125 805.0
373.1382141113281 162.0
374.18804931640625 138.0
375.1903991699219 180.0
383.1312561035156 245.0
384.17852783203125 163.0
385.1501159667969 194.0
386.19464111328125 2245.0
387.1632385253906 257.0
388.1828308105469 136.0
390.1816711425781 178.0
392.2078857421875 102.0
394.1724853515625 94.0
396.17828369140625 88.0
397.1565246582031 131.0
398.1611633300781 1021.0
399.1614990234375 135.0
400.2135925292969 624.0
401.1490173339844 198.0
402.17840576171875 259.0
403.1978454589844 119.0
404.2129211425781 923.0
407.1468811035156 184.0
408.1669006347656 96.0
412.16864013671875 163.0
413.1407470703125 85.0
414.1711120605469 5055.0
415.1598815917969 1577.0
416.1927490234375 239.0
417.1667175292969 143.0
418.2193298339844 1092.0
419.1813049316406 138.0
420.1875305175781 243.0
422.1949462890625 240.0
424.16668701171875 100.0
426.17486572265625 696.0
427.1517333984375 207.0
428.1936340332031 229.0
429.1844177246094 175.0
430.2084045410156 217.0
431.18115234375 89.0
432.1812438964844 923.0
433.16497802734375 1108.0
434.20245361328125 478.0
435.1796875 199.0
436.2225036621094 226.0
437.1932373046875 260.0
438.19732666015625 698.0
439.17022705078125 131.0
440.2001647949219 220.0
444.18402099609375 1266.0
445.1635437011719 271.0
446.19451904296875 1004.0
447.18218994140625 1266.0
448.20660400390625 596.0
450.19940185546875 1527.0
451.1944885253906 245.0
452.20855712890625 1483.0
456.1833190917969 115.0
458.1997375488281 3386.0
459.194580078125 187.0
460.2085876464844 188.0
462.20068359375 1113.0
463.2059020996094 819.0
464.21221923828125 4104.0
465.1923828125 4146.0
466.2281188964844 2106.0
467.2013244628906 154.0
468.2119445800781 473.0
469.2115173339844 91.0
470.2273864746094 209.0
472.2074890136719 273.0
474.19482421875 107.0
475.2129821777344 136.0
476.207763671875 20184.0
477.1974182128906 331.0
478.2218933105469 1714.0
479.20751953125 314.0
480.203369140625 874.0
482.22283935546875 23569.0
484.2311096191406 956.0
490.221923828125 6852.0
492.2374267578125 121.0
493.1999816894531 146.0
494.2227478027344 16589.0
495.2215881347656 380.0
496.23394775390625 2698.0
497.2160339355469 549.0
498.24609375 959.0
500.23089599609375 867.0
508.2349853515625 128406.0
509.2288818359375 142.0
510.2491149902344 3199.0
512.2449951171875 635.0
514.2479248046875 3931.0
522.2603149414062 2171.0
524.2377319335938 91.0
525.2536010742188 249.0
526.2478637695312 65935.0
527.2559814453125 233.0
528.2650756835938 303.0
540.2601318359375 525622.0
542.2811279296875 233.0
554.2748413085938 502.0
558.2731323242188 174015.0
570.2738647460938 264.0
572.2897338867188 74028.0
588.2894897460938 176.0
589.3757934570312 286.0
589.5053100585938 108.0
589.8017578125 240.0
589.9551391601562 210.0
590.0812377929688 193.0
590.3028564453125 1015812.0
591.5684814453125 8745.0
591.7255249023438 10627.0
592.12841796875 1920.0
592.2650146484375 1131.0
592.3845825195312 284.0
592.6373291015625 564.0
592.7705688476562 438.0
592.91064453125 236.0
593.02685546875 241.0
593.16015625 181.0
593.28662109375 354.0
593.42333984375 298.0
593.5498657226562 272.0
593.6660766601562 203.0
593.9088745117188 300.0
594.0593872070312 195.0
594.1824951171875 281.0
594.32275390625 185.0
594.4562377929688 234.0
594.7094116210938 255.0
594.8155517578125 175.0
594.9456176757812 247.0
595.072265625 266.0
595.36669921875 196.0
595.486572265625 170.0
595.7091674804688 178.0
595.9420776367188 187.0
596.2230834960938 245.0
596.435546875 136.0
596.77490234375 215.0
597.1143188476562 181.0
597.4263916015625 153.0
597.587646484375 177.0
597.8278198242188 118.0
598.1984252929688 125.0
598.3529052734375 135.0
598.6687622070312 152.0
598.7958374023438 98.0
598.9331665039062 142.0
599.1564331054688 204.0
599.3831787109375 153.0
599.8058471679688 122.0
600.0189819335938 140.0
600.2355346679688 117.0
600.4453125 114.0
600.7066650390625 126.0
600.8958740234375 133.0
601.1298217773438 141.0
601.36376953125 101.0
601.6494750976562 168.0
602.0694580078125 103.0
602.3862915039062 103.0
602.6377563476562 138.0
603.1477661132812 116.0
603.2821655273438 112.0
603.40625 133.0
603.5372924804688 111.0
603.8717651367188 193.0
604.02001953125 101.0
604.6720581054688 106.0
604.8653564453125 173.0
604.9757690429688 107.0
605.2243041992188 94.0
605.728515625 89.0
606.0220947265625 145.0
606.1637573242188 79.0
606.3883666992188 97.0
606.792724609375 85.0
607.6054077148438 94.0
608.0690307617188 89.0
608.4185791015625 106.0
609.696533203125 79.0
609.8489990234375 100.0
610.7156982421875 61.0
610.9273071289062 87.0
611.4546508789062 99.0
611.6385498046875 100.0
612.4127807617188 96.0
613.6914672851562 86.0
614.1574096679688 92.0
615.3195190429688 84.0
616.4235229492188 97.0
617.34716796875 87.0
617.4517822265625 79.0
617.73779296875 96.0

Name: Benzoylmesaconine
Precursor_mz: 612.2793003
Cas: 63238-67-5
Adduct: [M+Na]+
Mz: 612.2779173
Comment: Major
Smiles: COC[C@]12CN(C)C3[C@@H]4[C@H](OC)[C@H]1[C@@]3([C@@H](OC)C[C@H]2O)[C@@H]1C[C@]2(O)[C@@H](OC)[C@H](O)[C@@]4(O)[C@H]1[C@H]2OC(=O)c1ccccc1
Formula: C31H43NO10
Mix: Alkaloids-pos-mix29
Rt: [2.82]
Rt_apex: 2.816729672
Rt_start: 2.784083333
Rt_end: 2.88425
Ms1_intensity: 11461
N_scnas: 15
Ms1_scan_range: [620, 626, 636]
Reci_snr: 0.081536717
Ms2_scan_idx: 1417
Pmz_offset: 0.001218317
Entropy: 1.0
Num Peaks: 6
386.211181640625 51.0
418.2193298339844 199.0
450.26788330078125 31.0
572.286376953125 41.0
594.27490234375 149.0
612.2843017578125 2427.0

Name: Edpetiline
Precursor_mz: 592.386183
Cas: 32685-93-1
Adduct: [M+H]+
Mz: 592.3843941
Comment: Major
Smiles: C[C@H]1CC[C@@H]2N(C1)C[C@@H]1[C@H](CC[C@H]3[C@@H]4CC(=O)[C@H]5C[C@@H](O[C@@H]6O[C@H](CO)[C@@H](O)[C@H](O)[C@H]6O)CC[C@]5(C)[C@H]4C[C@H]31)[C@]2(C)O
Formula: C33H53NO8
Mix: Alkaloids-pos-mix29
Rt: [2.311]
Rt_apex: 2.31069674
Rt_start: 2.264633333
Rt_end: 2.6746
Ms1_intensity: 4276011
N_scnas: 60
Ms1_scan_range: [540, 547, 601]
Reci_snr: 0.00011865
Ms2_scan_idx: 1064
Pmz_offset: 0.002076579
Entropy: 0.9186558723449707
Num Peaks: 16
96.07654571533203 328.0
98.09532928466797 228.0
112.10914611816406 154.0
138.12664794921875 7013.0
394.31427001953125 499.0
412.32501220703125 1674.0
574.3759765625 637177.0
575.3887329101562 154.0
592.1005859375 92.0
592.3875122070312 806371.0
593.922119140625 405.0
594.0725708007812 238.0
594.2265014648438 274.0
594.3462524414062 165.0
594.73291015625 92.0
596.9595336914062 92.0

Name: Edpetiline
Precursor_mz: 592.3838227
Cas: 32685-93-1
Adduct: [M+H]+
Mz: 592.3843941
Comment: Minor
Smiles: C[C@H]1CC[C@@H]2N(C1)C[C@@H]1[C@H](CC[C@H]3[C@@H]4CC(=O)[C@H]5C[C@@H](O[C@@H]6O[C@H](CO)[C@@H](O)[C@H](O)[C@H]6O)CC[C@]5(C)[C@H]4C[C@H]31)[C@]2(C)O
Formula: C33H53NO8
Mix: Alkaloids-pos-mix29
Rt: [2.311]
Rt_apex: 2.233134469
Rt_start: 2.1753
Rt_end: 2.264633333
Ms1_intensity: 19514
N_scnas: 12
Ms1_scan_range: [527, 535, 540]
Reci_snr: 0.018579797
Ms2_scan_idx: 1022
Pmz_offset: 0.000283763
Entropy: 1.0
Num Peaks: 2
430.3248596191406 62.0
592.3880004882812 9315.0

Name: Vasicine hydrochloride
Precursor_mz: 189.1018344
Cas: 7174-27-8
Adduct: [M+H]+
Mz: 189.1022395
Comment: Major
Smiles: O[C@H]1CCN2Cc3ccccc3N=C12
Formula: C11H12N2O
Mix: Alkaloids-pos-mix29
Rt: [1.392]
Rt_apex: 1.391226086
Rt_start: 1.342883333
Rt_end: 1.802316667
Ms1_intensity: 2870540
N_scnas: 77
Ms1_scan_range: [386, 397, 464]
Reci_snr: 0.000112151
Ms2_scan_idx: 574
Pmz_offset: 0.001924946
Entropy: 0.9965402483940125
Num Peaks: 61
41.0374641418457 2433.0
42.03231430053711 255.0
44.05216979980469 92.0
51.022708892822266 1416.0
54.032997131347656 2024.0
57.033077239990234 761.0
63.02324295043945 964.0
65.03887939453125 8212.0
68.04945373535156 1957.0
75.02303314208984 476.0
77.03711700439453 11644.0
78.04425048828125 784.0
79.05168151855469 1053.0
89.03852081298828 33583.0
90.04509735107422 7645.0
91.05464935302734 141091.0
93.05408477783203 379.0
95.0478744506836 260.0
101.03752136230469 1587.0
102.0344467163086 1214.0
103.0533676147461 4059.0
104.0501480102539 8220.0
105.05460357666016 282.0
106.06388092041016 11188.0
114.04338836669922 231.0
115.05421447753906 34854.0
116.05135345458984 48546.0
117.05886840820312 73627.0
118.06464385986328 448333.0
119.0609359741211 201.0
120.04142761230469 174.0
126.04975891113281 691.0
127.0538101196289 12721.0
128.0507354736328 8176.0
129.05154418945312 3070.0
130.06585693359375 18631.0
131.0616455078125 6799.0
132.06930541992188 282.0
133.07595825195312 307.0
134.06044006347656 404.0
140.0484619140625 1204.0
141.05836486816406 933.0
142.065185546875 13262.0
143.07223510742188 104914.0
144.08116149902344 55280.0
145.06658935546875 1505.0
146.06045532226562 463.0
152.04820251464844 326.0
153.0552520751953 578.0
154.0656280517578 59012.0
155.0618438720703 3720.0
156.06829833984375 4719.0
160.06092834472656 309.0
167.06369018554688 245.0
168.06826782226562 5754.0
169.07586669921875 100256.0
170.0846405029297 10314.0
171.0927276611328 447257.0
172.0927734375 249.0
188.52813720703125 781.0
189.102783203125 350724.0

Name: Vasicine hydrochloride
Precursor_mz: 211.0814719
Cas: 7174-27-8
Adduct: [M+Na]+
Mz: 211.0841837
Comment: Major
Smiles: O[C@H]1CCN2Cc3ccccc3N=C12
Formula: C11H12N2O
Mix: Alkaloids-pos-mix29
Rt: [1.392]
Rt_apex: 1.398663067
Rt_start: 1.356033333
Rt_end: 1.483333333
Ms1_intensity: 6713
N_scnas: 20
Ms1_scan_range: [391, 399, 412]
Reci_snr: 0.017894979
Ms2_scan_idx: 582
Pmz_offset: 0.001751158
Entropy: 1.0
Num Peaks: 5
45.033714294433594 46.0
51.02170944213867 31.0
77.03958129882812 62.0
105.03158569335938 92.0
149.06414794921875 15.0

Name: Protostemotinine
Precursor_mz: 416.208405
Cas: 169534-85-4
Adduct: [M+H]+
Mz: 416.2067641
Comment: Major
Smiles: COC1=C(C)C(=O)O[C@]12C(=O)C(C)=C1CCCCN3[C@H]([C@@H]4C[C@H](C)C(=O)O4)CC[C@@]132
Formula: C23H29NO6
Mix: Alkaloids-pos-mix30
Rt: [4.2]
Rt_apex: 4.200210865
Rt_start: 4.137716667
Rt_end: 4.642016667
Ms1_intensity: 11574349
N_scnas: 82
Ms1_scan_range: [955, 964, 1038]
Reci_snr: 1.76e-05
Ms2_scan_idx: 2210
Pmz_offset: 0.002767319
Entropy: 0.9336626529693604
Num Peaks: 297
41.039180755615234 1672.0
43.05280303955078 778.0
44.05208206176758 228.0
55.01627731323242 3551.0
56.04949951171875 730.0
57.030845642089844 381.0
58.065616607666016 243.0
59.01477813720703 270.0
67.05278015136719 1786.0
68.04931640625 370.0
69.03571319580078 1158.0
70.06326293945312 932.0
71.05108642578125 1689.0
77.03820037841797 1049.0
79.05402374267578 1236.0
80.0490951538086 2235.0
81.06681823730469 666.0
82.06554412841797 1171.0
83.01283264160156 2098.0
84.0787582397461 616.0
85.06474304199219 205.0
89.03569793701172 198.0
91.05313110351562 3844.0
92.04945373535156 273.0
93.06879425048828 2308.0
94.06380462646484 3357.0
95.08600616455078 1620.0
96.08070373535156 2056.0
97.06399536132812 859.0
98.06062316894531 576.0
99.044189453125 9476.0
100.076171875 326.0
103.05316162109375 690.0
104.04850769042969 236.0
105.06877899169922 2910.0
106.06655883789062 2922.0
107.08793640136719 447.0
108.07918548583984 1382.0
109.06475067138672 650.0
110.09600830078125 923.0
111.0803451538086 312.0
112.0779800415039 449.0
113.0591812133789 1244.0
114.09562683105469 221.0
115.05097198486328 1641.0
116.06019592285156 330.0
117.06926727294922 2083.0
118.06440734863281 2345.0
119.08673095703125 1610.0
120.07962799072266 5686.0
121.0673828125 1019.0
122.09639739990234 3407.0
123.07994079589844 552.0
124.07211303710938 659.0
125.0588607788086 2934.0
126.0936279296875 211.0
127.04090881347656 576.0
128.0615997314453 2513.0
129.072021484375 2673.0
130.0655975341797 2095.0
131.08709716796875 2045.0
132.08193969726562 4751.0
133.10321044921875 2424.0
134.09754943847656 18187.0
135.0841522216797 1072.0
136.11203002929688 18552.0
137.05999755859375 512.0
138.0937042236328 758.0
139.07833862304688 905.0
140.07144165039062 435.0
141.0647430419922 1340.0
142.07493591308594 1863.0
143.08370971679688 2785.0
144.07919311523438 3891.0
145.10179138183594 2019.0
146.09408569335938 2718.0
147.10678100585938 1494.0
148.11444091796875 4808.0
149.11868286132812 1591.0
150.09536743164062 1989.0
151.07522583007812 743.0
152.06175231933594 628.0
153.05494689941406 991.0
154.07925415039062 1116.0
155.08425903320312 2244.0
156.08026123046875 1521.0
157.1005401611328 1446.0
158.09768676757812 4359.0
159.08206176757812 1459.0
160.11387634277344 4553.0
161.0973663330078 1809.0
162.1285400390625 79152.0
163.09848022460938 2519.0
164.1090545654297 12173.0
165.072265625 1093.0
166.08349609375 900.0
167.08331298828125 1394.0
168.10250854492188 1342.0
169.09925842285156 1335.0
170.09344482421875 2056.0
171.10891723632812 1092.0
172.1126708984375 10362.0
173.1119842529297 2335.0
174.12899780273438 79547.0
175.13600158691406 12954.0
176.108642578125 7500.0
177.1250762939453 337.0
178.08450317382812 389.0
179.08595275878906 723.0
180.09774780273438 775.0
181.09161376953125 1082.0
182.09388732910156 1165.0
183.0799560546875 952.0
184.1143798828125 3856.0
185.11924743652344 1707.0
186.12686157226562 10791.0
187.11224365234375 1899.0
188.11178588867188 4762.0
189.0869598388672 1629.0
190.12464904785156 120981.0
191.13412475585938 3128.0
192.10348510742188 383.0
193.10064697265625 840.0
194.0984344482422 869.0
195.1085968017578 964.0
196.10958862304688 1652.0
197.09934997558594 1770.0
198.12123107910156 2491.0
199.12001037597656 1419.0
200.1113739013672 14825.0
201.11912536621094 2591.0
202.12342834472656 9267.0
203.13023376464844 1624.0
204.1375274658203 911.0
205.09304809570312 648.0
206.1193084716797 1361.0
207.0653076171875 1836.0
208.11874389648438 782.0
209.0936737060547 868.0
210.12783813476562 2038.0
211.11154174804688 2356.0
212.11593627929688 2715.0
213.12680053710938 2205.0
214.12364196777344 6710.0
215.13516235351562 1558.0
216.13668823242188 14392.0
217.11366271972656 768.0
218.12185668945312 6057.0
219.1344451904297 528.0
220.13482666015625 1221.0
221.1249542236328 616.0
222.13612365722656 1558.0
223.11605834960938 575.0
224.146484375 1536.0
225.1182098388672 940.0
226.12579345703125 2347.0
227.13140869140625 902.0
228.13925170898438 3493.0
229.1833038330078 2015.0
230.15310668945312 3666.0
231.13134765625 1094.0
232.13519287109375 7271.0
233.14549255371094 2561.0
234.14939880371094 3689.0
235.1619110107422 443.0
236.15504455566406 1014.0
237.128662109375 755.0
238.1259307861328 2625.0
239.13180541992188 1955.0
240.13763427734375 5813.0
241.12376403808594 757.0
242.15560913085938 12859.0
243.13275146484375 1490.0
244.14036560058594 3509.0
245.1412811279297 1387.0
246.1464385986328 2755.0
247.09408569335938 752.0
248.12754821777344 1013.0
249.11886596679688 1278.0
250.12770080566406 1031.0
251.1363525390625 725.0
252.1403350830078 3777.0
253.13963317871094 1132.0
254.1498565673828 2144.0
255.10829162597656 642.0
256.1381530761719 8716.0
257.11383056640625 898.0
258.1499938964844 9740.0
259.1204528808594 766.0
260.169677734375 11676.0
261.1756896972656 3230.0
262.1495361328125 2235.0
263.1274719238281 254.0
264.14373779296875 1425.0
265.14593505859375 801.0
266.1592102050781 2517.0
267.1262512207031 1110.0
268.1409912109375 3482.0
269.1070251464844 1325.0
270.1531982421875 14944.0
271.1528625488281 1714.0
272.17059326171875 20762.0
273.17633056640625 23304.0
274.18389892578125 12542.0
275.1304626464844 420.0
276.1276550292969 465.0
277.1406555175781 281.0
278.1203918457031 793.0
279.1323547363281 314.0
280.1414489746094 577.0
281.1452941894531 771.0
282.15093994140625 4738.0
283.1607360839844 945.0
284.13214111328125 10188.0
285.1336364746094 464.0
286.1463928222656 8621.0
287.14666748046875 2734.0
288.1629943847656 125333.0
289.1715393066406 250529.0
290.181884765625 5437.0
292.1334533691406 1222.0
293.1417236328125 607.0
294.1806335449219 1064.0
295.1369934082031 281.0
296.131103515625 2777.0
297.1390075683594 932.0
298.1825256347656 1124.0
299.157470703125 519.0
300.1632080078125 12088.0
301.1681823730469 725.0
302.14556884765625 16086.0
303.1880798339844 366.0
304.17852783203125 356.0
305.14117431640625 200.0
306.13232421875 380.0
307.1620178222656 224.0
308.14166259765625 250.0
309.1376953125 565.0
310.147705078125 6115.0
311.1915283203125 842.0
312.1999206542969 2929.0
313.1701965332031 153.0
314.1817626953125 2835.0
315.1526184082031 259.0
316.15740966796875 5446.0
317.1712951660156 4477.0
318.17681884765625 5528.0
320.1624450683594 1283.0
322.1819763183594 2104.0
323.155029296875 238.0
324.15985107421875 1727.0
325.173828125 856.0
326.17926025390625 385.0
327.1608581542969 632.0
328.1769714355469 6875.0
329.2073669433594 1500.0
330.1731262207031 1031.0
332.1829833984375 841.0
334.1810302734375 209.0
337.1686706542969 512.0
338.18212890625 3219.0
339.186767578125 769.0
340.1980895996094 12156.0
341.1175842285156 378.0
342.1733093261719 112404.0
343.18646240234375 309.0
344.22454833984375 4702.0
345.1964111328125 703.0
348.17254638671875 1570.0
350.1366271972656 448.0
352.193115234375 966.0
354.2186584472656 1024.0
355.1886291503906 2765.0
356.1917419433594 9330.0
358.1702880859375 1279.0
360.2182312011719 8131.0
366.1742248535156 1290.0
368.150634765625 2386.0
370.2052917480469 10857.0
372.22235107421875 13141.0
373.1895446777344 795.0
380.1893615722656 1343.0
382.164794921875 204.0
383.1777648925781 1356.0
384.1866149902344 5572.0
386.16412353515625 951.0
388.2213439941406 143812.0
396.18646240234375 173.0
398.2001953125 128051.0
401.18536376953125 802.0
414.9281005859375 3736.0
416.2126159667969 825131.0
417.27545166015625 2085.0
417.40447998046875 2372.0
417.7457275390625 686.0
417.8662109375 279.0
418.17608642578125 176.0

Name: Protostemotinine
Precursor_mz: 416.2078996
Cas: 169534-85-4
Adduct: [M+H]+
Mz: 416.2067641
Comment: Minor
Smiles: COC1=C(C)C(=O)O[C@]12C(=O)C(C)=C1CCCCN3[C@H]([C@@H]4C[C@H](C)C(=O)O4)CC[C@@]132
Formula: C23H29NO6
Mix: Alkaloids-pos-mix30
Rt: [4.2]
Rt_apex: 4.124124615
Rt_start: 4.028216667
Rt_end: 4.137716667
Ms1_intensity: 231923
N_scnas: 15
Ms1_scan_range: [939, 953, 955]
Reci_snr: 0.000595626
Ms2_scan_idx: 2149
Pmz_offset: 0.002261921
Entropy: 1.0000001192092896
Num Peaks: 40
134.0960235595703 366.0
136.10885620117188 412.0
158.0942840576172 202.0
160.11044311523438 243.0
162.128662109375 1222.0
164.1073760986328 314.0
172.11648559570312 186.0
174.12728881835938 1628.0
175.13427734375 482.0
176.10877990722656 298.0
188.1080780029297 235.0
190.11898803710938 1548.0
200.1075439453125 441.0
202.1275634765625 259.0
212.14266967773438 243.0
216.13685607910156 338.0
232.1332244873047 209.0
233.13710021972656 181.0
242.15142822265625 444.0
244.13397216796875 176.0
256.1383361816406 229.0
258.1479187011719 525.0
260.1630859375 323.0
270.1488037109375 475.0
272.1754455566406 388.0
273.1719055175781 410.0
274.1841125488281 409.0
288.16082763671875 2396.0
289.1669921875 4363.0
302.14093017578125 373.0
310.1405334472656 174.0
316.15765380859375 178.0
340.2035217285156 268.0
342.173583984375 2505.0
344.2300109863281 214.0
370.20556640625 317.0
372.2226257324219 214.0
388.2133483886719 2190.0
398.19488525390625 2472.0
416.2100524902344 15272.0

Name: Protostemotinine
Precursor_mz: 438.1878621
Cas: 169534-85-4
Adduct: [M+Na]+
Mz: 438.1887084
Comment: Major
Smiles: COC1=C(C)C(=O)O[C@]12C(=O)C(C)=C1CCCCN3[C@H]([C@@H]4C[C@H](C)C(=O)O4)CC[C@@]132
Formula: C23H29NO6
Mix: Alkaloids-pos-mix30
Rt: [4.2]
Rt_apex: 4.220370972
Rt_start: 4.054716667
Rt_end: 4.537833333
Ms1_intensity: 441504
N_scnas: 72
Ms1_scan_range: [943, 967, 1016]
Reci_snr: 0.000362816
Ms2_scan_idx: 2181
Pmz_offset: 0.001015352
Entropy: 1.0
Num Peaks: 18
149.0572052001953 3262.0
151.03578186035156 532.0
164.1074981689453 252.0
176.10890197753906 154.0
185.0775146484375 1162.0
200.10968017578125 92.0
216.13494873046875 215.0
238.12411499023438 631.0
266.1458740234375 93.0
283.1588134765625 92.0
288.1658020019531 2433.0
310.14569091796875 7633.0
311.1523742675781 1624.0
358.17877197265625 154.0
376.18359375 93.0
394.19793701171875 297.0
436.8533630371094 154.0
438.19189453125 45311.0

Name: Protostemotinine
Precursor_mz: 433.2309131
Cas: 169534-85-4
Adduct: [M+NH4]+
Mz: 433.2333132
Comment: Major
Smiles: COC1=C(C)C(=O)O[C@]12C(=O)C(C)=C1CCCCN3[C@H]([C@@H]4C[C@H](C)C(=O)O4)CC[C@@]132
Formula: C23H29NO6
Mix: Alkaloids-pos-mix30
Rt: [4.2]
Rt_apex: 4.19279875
Rt_start: 4.151716667
Rt_end: 4.312033333
Ms1_intensity: 63458
N_scnas: 23
Ms1_scan_range: [957, 963, 981]
Reci_snr: 0.013835818
Ms2_scan_idx: 2187
Pmz_offset: 0.000304145
Entropy: 0.9595438838005066
Num Peaks: 62
99.04287719726562 574.0
122.09650421142578 235.0
125.05896759033203 244.0
134.0992889404297 688.0
136.11215209960938 773.0
144.07763671875 177.0
148.1111602783203 350.0
158.0960693359375 234.0
160.11045837402344 222.0
162.12867736816406 1910.0
164.10560607910156 392.0
172.10914611816406 567.0
174.12730407714844 2551.0
175.13429260253906 773.0
176.1088104248047 273.0
186.12701416015625 389.0
188.11001586914062 450.0
190.12094116210938 2251.0
200.10955810546875 567.0
201.14915466308594 251.0
202.11761474609375 456.0
211.10765075683594 186.0
214.1217803955078 253.0
216.1368865966797 444.0
218.11790466308594 304.0
229.1835174560547 204.0
230.15118408203125 617.0
232.13539123535156 307.0
233.14784240722656 456.0
240.14654541015625 277.0
242.15145874023438 862.0
244.13400268554688 198.0
256.140625 404.0
258.15472412109375 359.0
260.1653747558594 555.0
261.1759033203125 283.0
270.1534423828125 886.0
272.1662292480469 712.0
273.17657470703125 1125.0
274.18182373046875 936.0
282.15118408203125 251.0
284.1300354003906 378.0
286.1513977050781 434.0
288.1632385253906 4311.0
289.1670227050781 7839.0
300.15374755859375 393.0
302.1434020996094 534.0
310.15045166015625 505.0
316.1527099609375 563.0
317.1640930175781 292.0
318.1695861816406 230.0
328.15692138671875 384.0
338.172119140625 193.0
340.182861328125 523.0
342.17620849609375 4213.0
344.232666015625 268.0
355.1810302734375 280.0
356.18939208984375 381.0
360.23187255859375 338.0
370.20831298828125 547.0
372.2308044433594 692.0
398.19775390625 4911.0

Name: Dehydrocorydaline chloride
Precursor_mz: 366.1713511
Cas: 10605-03-5
Adduct: [M]+
Mz: 366.1699847
Comment: Major
Smiles: COc1cc2c(cc1OC)-c1c(C)c3ccc(OC)c(OC)c3c[n+]1CC2
Formula: C22H24NO4+
Mix: Alkaloids-pos-mix30
Rt: [3.084]
Rt_apex: 3.080669178
Rt_start: 3.026783333
Rt_end: 3.278433333
Ms1_intensity: 16946576
N_scnas: 37
Ms1_scan_range: [785, 793, 823]
Reci_snr: 0.000109355
Ms2_scan_idx: 1457
Pmz_offset: 0.001902627
Entropy: 0.9992779493331909
Num Peaks: 48
220.07452392578125 193.0
222.0985565185547 780.0
234.0915069580078 698.0
235.10174560546875 227.0
246.09368896484375 531.0
247.0985870361328 955.0
248.10995483398438 555.0
249.11231994628906 675.0
250.08340454101562 583.0
260.1041259765625 580.0
261.1100158691406 649.0
262.083740234375 393.0
263.0979919433594 1008.0
264.09820556640625 3505.0
273.1161193847656 549.0
274.0840759277344 194.0
275.08636474609375 347.0
276.10211181640625 958.0
277.1127014160156 2143.0
278.1204833984375 4503.0
288.0987854003906 256.0
289.10723876953125 2645.0
290.117431640625 1833.0
291.08392333984375 451.0
292.0999755859375 17737.0
293.10821533203125 3829.0
302.082275390625 213.0
304.0978698730469 1857.0
305.1412658691406 6237.0
306.1152648925781 33811.0
307.12030029296875 4638.0
308.1319274902344 49325.0
316.10015869140625 179.0
318.1118469238281 6454.0
319.121337890625 1245.0
320.0922546386719 2172.0
321.1376037597656 4095.0
322.1468505859375 93292.0
332.0961608886719 3094.0
333.09942626953125 330.0
334.11700439453125 33290.0
335.1156005859375 9755.0
336.1259765625 44043.0
348.128173828125 4433.0
350.1419982910156 198777.0
351.1484680175781 70624.0
365.03662109375 307.0
366.1716613769531 165192.0

Name: Geissoschizine methyl ether
Precursor_mz: 367.2020525
Cas: 60314-89-8
Adduct: [M+H]+
Mz: 367.2016192
Comment: Major
Smiles: C/C=C1/CN2CCc3c([nH]c4ccccc34)[C@@H]2C[C@@H]1/C(=C/OC)C(=O)OC
Formula: C22H26N2O3
Mix: Alkaloids-pos-mix30
Rt: [3.278]
Rt_apex: 3.274411977
Rt_start: 3.237766667
Rt_end: 3.8164
Ms1_intensity: 11615861
N_scnas: 89
Ms1_scan_range: [817, 822, 907]
Reci_snr: 0.000282899
Ms2_scan_idx: 1564
Pmz_offset: 0.00260517
Entropy: 0.9820997714996338
Num Peaks: 250
41.03923416137695 407.0
42.03501510620117 2359.0
45.03368377685547 1038.0
47.048465728759766 1713.0
53.039024353027344 335.0
55.054866790771484 782.0
56.04956817626953 646.0
59.04935836791992 849.0
60.04346466064453 828.0
65.03883361816406 1008.0
67.05516815185547 339.0
68.04824829101562 604.0
70.06452941894531 346.0
74.05854034423828 184.0
75.04607391357422 17061.0
77.03706359863281 2587.0
78.04667663574219 400.0
79.05537414550781 2621.0
80.04920196533203 912.0
81.06818389892578 858.0
82.0656509399414 4819.0
84.08272552490234 303.0
85.0299072265625 2176.0
89.03580474853516 864.0
90.0463638305664 669.0
91.0545883178711 14560.0
92.05091857910156 635.0
93.06755828857422 2365.0
94.06392669677734 2060.0
95.04917907714844 4409.0
96.08220672607422 614.0
97.06549835205078 379.0
99.04570770263672 471.0
101.0374526977539 203.0
102.04572296142578 316.0
103.05614471435547 3079.0
104.05294036865234 549.0
105.07035064697266 3375.0
106.06669616699219 4337.0
107.04886627197266 957.0
108.0807876586914 52666.0
109.06635284423828 3588.0
111.04351806640625 717.0
115.05413055419922 14096.0
116.05883026123047 1203.0
117.06790161132812 19342.0
118.06455993652344 5163.0
119.05013275146484 1364.0
120.0813217163086 2438.0
121.06599426269531 5228.0
122.09654998779297 1051.0
123.08009338378906 12668.0
125.06058502197266 936.0
126.04651641845703 318.0
127.05371856689453 7978.0
128.06016540527344 8938.0
129.06101989746094 17998.0
130.06576538085938 32547.0
131.07601928710938 2512.0
132.0821075439453 6953.0
133.0645294189453 1522.0
134.0587158203125 1022.0
135.0810546875 1387.0
136.07618713378906 840.0
137.06182861328125 1621.0
138.05760192871094 10043.0
139.07521057128906 326.0
140.0533447265625 406.0
141.07325744628906 520.0
142.06509399414062 2286.0
143.07382202148438 24485.0
144.08274841308594 447248.0
145.06478881835938 988.0
146.09597778320312 1236.0
147.07974243164062 4043.0
148.07363891601562 1176.0
149.05889892578125 1363.0
150.0921173095703 1725.0
151.07542419433594 3170.0
152.06886291503906 1278.0
153.07077026367188 1695.0
154.0672607421875 11075.0
155.07571411132812 11653.0
156.08221435546875 23860.0
157.08843994140625 1810.0
158.09613037109375 13253.0
159.0734100341797 2239.0
160.0785675048828 6899.0
161.08154296875 735.0
162.09300231933594 713.0
163.07896423339844 1487.0
164.1074676513672 3077.0
165.07968139648438 2556.0
166.0873260498047 28786.0
167.074462890625 8556.0
168.0808868408203 19653.0
169.0812225341797 6306.0
170.09732055664062 74142.0
171.0926055908203 7542.0
172.11842346191406 4977.0
173.08636474609375 373.0
174.09219360351562 6043.0
175.0786590576172 5345.0
176.10887145996094 2386.0
177.0935516357422 1922.0
178.08847045898438 6092.0
179.0880584716797 747.0
180.09608459472656 13853.0
181.0918426513672 5864.0
182.0998077392578 7662.0
183.09347534179688 4331.0
184.11270141601562 5931.0
185.11375427246094 364.0
186.09646606445312 737.0
187.0779266357422 342.0
188.10816955566406 557.0
189.0949249267578 424.0
190.09005737304688 1393.0
191.07423400878906 1575.0
192.10372924804688 23271.0
193.0911407470703 2889.0
194.0967254638672 6740.0
195.10101318359375 1587.0
196.11770629882812 8639.0
197.11338806152344 1420.0
198.13333129882812 774.0
199.1222381591797 1210.0
200.10963439941406 1091.0
201.08157348632812 285.0
202.0857696533203 528.0
203.09048461914062 309.0
204.08966064453125 5617.0
205.09130859375 7719.0
206.0953826904297 8357.0
207.10595703125 6020.0
208.1109161376953 9071.0
209.108154296875 1740.0
210.11793518066406 2008.0
211.12200927734375 484.0
212.12437438964844 562.0
214.12391662597656 420.0
215.08192443847656 285.0
216.08746337890625 1104.0
217.09120178222656 12028.0
218.09933471679688 12186.0
219.10565185546875 6216.0
220.11219787597656 4473.0
221.1127166748047 4356.0
222.130126953125 14417.0
223.1226348876953 1643.0
224.1299591064453 64651.0
225.1416473388672 45375.0
226.08810424804688 1009.0
228.0780792236328 836.0
229.09225463867188 921.0
230.1001739501953 6868.0
231.10391235351562 10802.0
232.11837768554688 13117.0
233.12222290039062 2752.0
234.13037109375 22074.0
235.132080078125 2902.0
236.13377380371094 25773.0
237.1397705078125 693.0
238.09375 1004.0
239.09088134765625 187.0
240.11184692382812 427.0
241.09140014648438 482.0
242.09695434570312 2246.0
243.10899353027344 5049.0
244.11436462402344 4985.0
245.11961364746094 2438.0
246.13133239746094 12496.0
247.12969970703125 3375.0
248.12786865234375 3290.0
249.1435546875 7378.0
250.13023376464844 1055.0
251.1566925048828 29552.0
252.10055541992188 941.0
253.1020050048828 450.0
254.11886596679688 612.0
255.10638427734375 322.0
256.1227722167969 962.0
257.1231689453125 615.0
258.1300354003906 10077.0
259.132080078125 3414.0
260.1134338378906 4801.0
261.11932373046875 1910.0
262.1203308105469 1857.0
263.13690185546875 1165.0
264.1394958496094 3331.0
265.1097106933594 360.0
266.1229248046875 8220.0
267.1082458496094 193.0
268.10687255859375 382.0
270.09588623046875 427.0
271.1047058105469 1272.0
272.1130676269531 923.0
273.1094055175781 714.0
274.12152099609375 6566.0
275.15411376953125 2764.0
276.10467529296875 1533.0
277.1176452636719 1256.0
278.1558532714844 3801.0
279.1163024902344 215.0
280.1300354003906 1299.0
281.1338806152344 212.0
284.13958740234375 249.0
285.14349365234375 384.0
286.1253967285156 3422.0
287.1280212402344 506.0
288.1061706542969 1499.0
289.1122741699219 1501.0
290.15594482421875 4518.0
291.12249755859375 1306.0
292.1386413574219 3901.0
293.1372985839844 289.0
294.14971923828125 3185.0
296.1363220214844 198.0
298.14898681640625 488.0
301.1344909667969 302.0
302.1313171386719 361.0
303.1542663574219 6082.0
304.1348571777344 1163.0
305.13909912109375 958.0
306.1548156738281 9617.0
307.18206787109375 2094.0
308.1568603515625 253.0
309.1331787109375 655.0
310.1481018066406 775.0
312.1680603027344 230.0
317.17919921875 200.0
318.1546936035156 11306.0
319.1466979980469 710.0
320.16033935546875 316.0
321.1328430175781 571.0
322.149658203125 362.0
323.150390625 929.0
324.1602478027344 4365.0
333.16888427734375 170.0
335.1801452636719 17043.0
336.16229248046875 446.0
338.1773986816406 6511.0
339.1820373535156 368.0
350.18695068359375 5834.0
365.1924743652344 262.0
366.0833740234375 971.0
367.20660400390625 298233.0
368.2561340332031 153.0
368.43927001953125 169.0
368.6494140625 180.0

Name: Geissoschizine methyl ether
Precursor_mz: 389.1801566
Cas: 60314-89-8
Adduct: [M+Na]+
Mz: 389.1835634
Comment: Major
Smiles: C/C=C1/CN2CCc3c([nH]c4ccccc34)[C@@H]2C[C@@H]1/C(=C/OC)C(=O)OC
Formula: C22H26N2O3
Mix: Alkaloids-pos-mix30
Rt: [3.278]
Rt_apex: 3.277016223
Rt_start: 3.237766667
Rt_end: 3.377266667
Ms1_intensity: 13445
N_scnas: 20
Ms1_scan_range: [817, 823, 838]
Reci_snr: 0.050305734
Ms2_scan_idx: 1586
Pmz_offset: 0.001073755
Entropy: nan
Num Peaks: 1
389.1903076171875 1260.0

Name: Dehydronuciferine
Precursor_mz: 294.1491362
Cas: 7630-74-2
Adduct: [M+H]+
Mz: 294.1488553
Comment: Major
Smiles: COc1cc2c3c(cc4ccccc4c3c1OC)N(C)CC2
Formula: C19H19NO2
Mix: Alkaloids-pos-mix30
Rt: [5.481]
Rt_apex: 5.478343463
Rt_start: 5.05155
Rt_end: 6.2702
Ms1_intensity: 3496244
N_scnas: 296
Ms1_scan_range: [1125, 1230, 1422]
Reci_snr: 8.91e-05
Ms2_scan_idx: 2759
Pmz_offset: 0.001374625
Entropy: 1.0
Num Peaks: 15
205.0872344970703 25.0
208.11087036132812 25.0
218.1013641357422 123.0
220.07676696777344 68.0
221.0834503173828 41.0
234.09596252441406 70.0
235.09974670410156 178.0
236.10784912109375 270.0
250.12353515625 61.0
262.1316223144531 41.0
263.13458251953125 58.0
264.10296630859375 194.0
278.11834716796875 68.0
279.13031005859375 176.0
294.1472473144531 80.0

Name: Ethoxysanguinarine
Precursor_mz: 395.1594073
Cas: 28342-31-6
Adduct: [M+NH4]+
Mz: 395.1601483
Comment: Major
Smiles: CCOC1c2c(ccc3c2OCO3)-c2ccc3cc4c(cc3c2N1C)OCO4
Formula: C22H19NO5
Mix: Alkaloids-pos-mix30
Rt: [2.598, 2.915, 3.265, 3.985]
Rt_apex: 3.146445379
Rt_start: 3.10995
Rt_end: 3.244933333
Ms1_intensity: 107254
N_scnas: 19
Ms1_scan_range: [798, 804, 818]
Reci_snr: 0.002508943
Ms2_scan_idx: 1488
Pmz_offset: 0.00029698
Entropy: 1.0000001192092896
Num Peaks: 17
247.12747192382812 226.0
263.12322998046875 648.0
264.12579345703125 918.0
275.1168518066406 2117.0
276.1349792480469 209.0
277.13397216796875 402.0
289.1026916503906 154.0
291.11529541015625 154.0
293.127685546875 435.0
303.1151428222656 538.0
304.1201477050781 1101.0
305.1292724609375 591.0
307.1476135253906 1694.0
331.1125793457031 1085.0
335.1441345214844 1472.0
363.138427734375 544.0
395.165283203125 6560.0

Name: N-(p-Coumaroyl) serotonin
Precursor_mz: 323.1404563
Cas: 68573-24-0
Adduct: [M+H]+
Mz: 323.1390189
Comment: Major
Smiles: O=C(/C=C/c1ccc(O)cc1)NCCc1c[nH]c2ccc(O)cc12
Formula: C19H18N2O3
Mix: Alkaloids-pos-mix30
Rt: [2.724]
Rt_apex: 2.724792083
Rt_start: 2.67415
Rt_end: 2.859633333
Ms1_intensity: 729723
N_scnas: 28
Ms1_scan_range: [731, 739, 760]
Reci_snr: 0.0003156
Ms2_scan_idx: 1151
Pmz_offset: 0.002563648
Entropy: 0.9895738363265991
Num Peaks: 27
65.0388412475586 1354.0
77.040771484375 470.0
91.05460357666016 50175.0
101.03887939453125 154.0
103.05188751220703 207.0
105.07036590576172 836.0
107.04743194580078 234.0
115.05565643310547 2722.0
116.05431365966797 92.0
117.05728912353516 1582.0
119.05015563964844 105481.0
130.06419372558594 302.0
131.047119140625 303.0
132.083740234375 2410.0
133.06455993652344 541.0
142.0651092529297 817.0
143.0755157470703 549.0
145.05299377441406 92.0
147.0457305908203 204281.0
148.0804901123047 154.0
158.05557250976562 185.0
159.06813049316406 927.0
160.07859802246094 26678.0
177.10105895996094 193.0
186.05628967285156 154.0
203.08251953125 201.0
306.1106872558594 740.0

Name: Syrosingopine
Precursor_mz: 667.2885575
Cas: 84-36-6
Adduct: [M+H]+
Mz: 667.2861366
Comment: Major
Smiles: CCOC(=O)Oc1c(OC)cc(C(=O)O[C@@H]2C[C@@H]3CN4CCc5c([nH]c6cc(OC)ccc56)[C@H]4C[C@@H]3[C@H](C(=O)OC)[C@H]2OC)cc1OC
Formula: C35H42N2O11
Mix: Alkaloids-pos-mix30
Rt: [4.036]
Rt_apex: 4.031163157
Rt_start: 3.975266667
Rt_end: 4.124216667
Ms1_intensity: 666789
N_scnas: 21
Ms1_scan_range: [931, 939, 953]
Reci_snr: 0.000218753
Ms2_scan_idx: 2104
Pmz_offset: 0.003575365
Entropy: 0.9631143808364868
Num Peaks: 90
94.0638427734375 333.0
106.0608139038086 227.0
108.07776641845703 183.0
111.04637145996094 272.0
115.05101776123047 184.0
123.08153533935547 191.0
130.06564331054688 364.0
131.0726776123047 523.0
132.08038330078125 215.0
143.0686492919922 504.0
144.0809326171875 318.0
147.08131408691406 178.0
148.07350158691406 708.0
153.05152893066406 417.0
159.06796264648438 1119.0
160.07664489746094 992.0
161.0849609375 260.0
162.09107971191406 418.0
169.08653259277344 190.0
172.0777587890625 300.0
173.0843505859375 175.0
174.09202575683594 32799.0
175.07662963867188 282.0
176.11058044433594 516.0
178.07894897460938 306.0
181.0501251220703 19143.0
186.08863830566406 366.0
188.10414123535156 996.0
189.1005401611328 195.0
190.08795166015625 532.0
192.09771728515625 3423.0
200.10548400878906 671.0
201.0992889404297 180.0
204.1055145263672 744.0
209.08157348632812 1527.0
212.1078338623047 261.0
214.10934448242188 301.0
215.11671447753906 528.0
222.1152801513672 644.0
224.12974548339844 4428.0
227.11878967285156 265.0
228.12660217285156 226.0
236.12493896484375 6019.0
238.12600708007812 489.0
248.10552978515625 259.0
250.11891174316406 303.0
253.07275390625 1559.0
254.14100646972656 186.0
262.12689208984375 206.0
274.1212463378906 308.0
276.1347351074219 378.0
281.161865234375 276.0
288.1321105957031 377.0
289.1477966308594 190.0
290.1126708984375 248.0
302.12371826171875 260.0
304.13458251953125 368.0
305.165771484375 443.0
316.1300964355469 292.0
322.14935302734375 320.0
333.1634521484375 523.0
334.1554870605469 210.0
336.159423828125 2816.0
337.1945495605469 177.0
348.1595764160156 982.0
354.1791687011719 349.0
365.189453125 5500.0
366.1770324707031 217.0
368.185791015625 1267.0
380.1894836425781 646.0
396.19500732421875 193.0
397.2152099609375 34435.0
413.2034606933594 216.0
426.16033935546875 320.0
434.1819152832031 272.0
460.1483154296875 275.0
462.1885681152344 414.0
474.1794738769531 223.0
492.190673828125 1264.0
494.2008361816406 3886.0
506.2058410644531 17402.0
595.274169921875 331.0
617.263427734375 206.0
618.2435302734375 205.0
635.2650756835938 1758.0
638.2609252929688 186.0
649.2775268554688 322.0
650.2720336914062 440.0
667.2908325195312 190598.0
668.3098754882812 180.0

Name: Syrosingopine
Precursor_mz: 689.271909
Cas: 84-36-6
Adduct: [M+Na]+
Mz: 689.2680809
Comment: Major
Smiles: CCOC(=O)Oc1c(OC)cc(C(=O)O[C@@H]2C[C@@H]3CN4CCc5c([nH]c6cc(OC)ccc56)[C@H]4C[C@@H]3[C@H](C(=O)OC)[C@H]2OC)cc1OC
Formula: C35H42N2O11
Mix: Alkaloids-pos-mix30
Rt: [4.036]
Rt_apex: 4.028284376
Rt_start: 3.975266667
Rt_end: 4.17205
Ms1_intensity: 24147
N_scnas: 28
Ms1_scan_range: [931, 939, 960]
Reci_snr: 0.005343601
Ms2_scan_idx: 2083
Pmz_offset: 0.002006961
Entropy: 0.9494100213050842
Num Peaks: 6
333.1635437011719 93.0
365.1788330078125 312.0
387.17987060546875 154.0
393.1256408691406 93.0
657.2404174804688 942.0
689.2742919921875 1161.0

Name: Conessine
Precursor_mz: 357.3252132
Cas: 546-06-5
Adduct: [M+H]+
Mz: 357.3264258
Comment: Major
Smiles: C[C@@H]1[C@@H]2CC[C@@H]3[C@@H]4CC=C5C[C@H](N(C)C)CC[C@@]5(C)[C@@H]4CC[C@@]32CN1C
Formula: C24H40N2
Mix: Alkaloids-pos-mix30
Rt: [2.088]
Rt_apex: 2.086381154
Rt_start: 2.048866667
Rt_end: 2.557166667
Ms1_intensity: 254961
N_scnas: 79
Ms1_scan_range: [630, 636, 710]
Reci_snr: 0.000727663
Ms2_scan_idx: 859
Pmz_offset: 0.000411444
Entropy: 0.9988154172897339
Num Peaks: 42
42.03228759765625 332.0
44.04841613769531 4049.0
46.06794357299805 123.0
55.05278778076172 351.0
58.0667610168457 92.0
67.05287170410156 217.0
72.08284759521484 397.0
79.05288696289062 375.0
81.0694580078125 447.0
83.08712005615234 123.0
84.08015441894531 1733.0
91.05057525634766 652.0
93.06892395019531 801.0
95.08476257324219 280.0
98.09828186035156 123.0
105.07179260253906 916.0
107.08372497558594 520.0
109.1030044555664 903.0
117.06942749023438 323.0
119.08536529541016 675.0
121.10306549072266 488.0
128.0601806640625 224.0
131.09048461914062 760.0
133.10177612304688 834.0
135.11532592773438 634.0
145.1002960205078 910.0
147.11549377441406 2179.0
149.12916564941406 259.0
157.0989990234375 240.0
159.11767578125 2165.0
161.129638671875 1511.0
173.13436889648438 1153.0
185.1366729736328 213.0
187.1470489501953 1218.0
199.1479949951172 423.0
201.16517639160156 361.0
213.1701202392578 256.0
227.17613220214844 196.0
269.22711181640625 1856.0
312.269775390625 9555.0
356.2292785644531 161.0
357.3320007324219 65775.0

Name: N-Nornuciferine hydrochloride(4846-19-9 free base)
Precursor_mz: 282.1486047
Cas: TQ0296L
Adduct: [M+H]+
Mz: 282.1488553
Comment: Major
Smiles: COc1cc2c3c(c1OC)-c1ccccc1C[C@H]3NCC2
Formula: C18H19NO2
Mix: Alkaloids-pos-mix31
Rt: [2.862]
Rt_apex: 2.859934137
Rt_start: 2.817733333
Rt_end: 3.2092
Ms1_intensity: 3907945
N_scnas: 59
Ms1_scan_range: [709, 715, 769]
Reci_snr: 5.38e-05
Ms2_scan_idx: 1329
Pmz_offset: 0.000646876
Entropy: 0.9988809823989868
Num Peaks: 76
43.01784896850586 224.0
44.04838562011719 421.0
55.01737594604492 840.0
75.04122161865234 358.0
85.0312271118164 353.0
115.04969024658203 525.0
127.05223846435547 773.0
128.06344604492188 4734.0
139.05215454101562 597.0
141.07337951660156 999.0
150.0441131591797 325.0
151.05487060546875 1580.0
152.0603485107422 4007.0
153.0709228515625 1263.0
154.07437133789062 264.0
155.0478973388672 382.0
163.05224609375 887.0
164.06448364257812 1343.0
165.07083129882812 31157.0
166.07664489746094 1143.0
167.0873260498047 1033.0
169.06314086914062 265.0
176.06436157226562 3215.0
177.0713348388672 9522.0
178.0792999267578 171541.0
179.08636474609375 208948.0
180.05862426757812 645.0
181.0655975341797 1701.0
182.0697021484375 239.0
187.0550994873047 625.0
188.05641174316406 650.0
189.07003784179688 137874.0
190.0786590576172 84533.0
191.08609008789062 241912.0
192.09422302246094 5277.0
193.0718536376953 10786.0
194.10476684570312 1817.0
195.0816192626953 1628.0
200.064208984375 862.0
201.06985473632812 8448.0
202.07803344726562 65348.0
203.0867156982422 111148.0
204.0939178466797 10683.0
205.0875244140625 15332.0
206.07347106933594 7816.0
207.08197021484375 169967.0
208.09091186523438 2843.0
209.10028076171875 291.0
213.0658721923828 883.0
214.07899475097656 1642.0
215.0863037109375 7453.0
216.0918426513672 239.0
217.066650390625 41704.0
218.07472229003906 69244.0
219.08099365234375 175742.0
220.08956909179688 7443.0
221.07542419433594 61229.0
222.1053009033203 12921.0
223.07260131835938 441.0
224.0882110595703 199.0
231.07859802246094 10706.0
232.0887451171875 4566.0
233.0968017578125 50932.0
234.10488891601562 400045.0
235.07643127441406 620357.0
236.08447265625 40445.0
237.09036254882812 4280.0
238.09405517578125 489.0
243.093994140625 341.0
247.07485961914062 322.0
249.09071350097656 37709.0
250.10171508789062 538359.0
251.1236572265625 177.0
265.123779296875 641424.0
266.1438903808594 394.0
282.1564025878906 1475.0

Name: Lycoramine
Precursor_mz: 290.1751537
Cas: 21133-52-8
Adduct: [M+H]+
Mz: 290.1750701
Comment: Major
Smiles: COc1ccc2c3c1O[C@H]1C[C@@H](O)CC[C@@]31CCN(C)C2
Formula: C17H23NO3
Mix: Alkaloids-pos-mix31
Rt: [1.482]
Rt_apex: 1.486191214
Rt_start: 1.434833333
Rt_end: 2.09325
Ms1_intensity: 1806340
N_scnas: 123
Ms1_scan_range: [466, 476, 590]
Reci_snr: 0.000374718
Ms2_scan_idx: 599
Pmz_offset: 0.00137051
Entropy: 0.9942971467971802
Num Peaks: 151
41.0383415222168 340.0
42.034114837646484 2030.0
43.017887115478516 1562.0
44.050289154052734 52082.0
45.0308723449707 215.0
53.03803253173828 175.0
55.05282211303711 721.0
56.04855728149414 180.0
57.032020568847656 219.0
58.065731048583984 3532.0
59.04940414428711 125.0
65.03889465332031 241.0
67.0540771484375 826.0
69.0323715209961 145.0
77.03715515136719 1567.0
78.04924774169922 148.0
79.05421447753906 1813.0
80.04803466796875 106.0
81.06954956054688 363.0
82.0644760131836 181.0
83.04756164550781 1149.0
89.03724670410156 171.0
91.05470275878906 5477.0
92.05776977539062 345.0
93.06903839111328 606.0
94.06405639648438 301.0
95.08488464355469 328.0
96.07820892333984 439.0
97.08775329589844 253.0
102.04728698730469 291.0
103.0534439086914 2013.0
104.06024932861328 334.0
105.0690689086914 8287.0
106.04228210449219 126.0
107.05047607421875 860.0
108.05760955810547 604.0
109.0870361328125 1676.0
110.09336853027344 120.0
111.04220581054688 103.0
115.05431365966797 6365.0
116.0605239868164 980.0
117.0696029663086 2782.0
118.07237243652344 447.0
119.08401489257812 946.0
120.08305358886719 336.0
121.06464385986328 7104.0
122.07193756103516 2492.0
123.0802993774414 994.0
126.0467300415039 140.0
127.0539321899414 2214.0
128.0635528564453 7098.0
129.07080078125 13309.0
130.07879638671875 1061.0
131.050537109375 4764.0
132.05653381347656 661.0
133.06475830078125 659.0
134.09469604492188 2444.0
135.081298828125 8359.0
136.0535125732422 597.0
137.06040954589844 1046.0
139.05227661132812 484.0
140.06356811523438 293.0
141.06851196289062 4662.0
142.07704162597656 3156.0
143.08413696289062 2166.0
144.05604553222656 5171.0
145.06504821777344 14668.0
146.07249450683594 11792.0
147.0800018310547 1216.0
148.0517120361328 213.0
149.05917358398438 3080.0
150.07003784179688 335.0
151.073974609375 4671.0
152.06048583984375 1027.0
153.11447143554688 6560.0
154.0780029296875 3027.0
155.08648681640625 18431.0
156.093017578125 2199.0
157.06410217285156 7182.0
158.073486328125 14913.0
159.0825653076172 12129.0
160.05223083496094 408.0
161.09786987304688 1440.0
162.06472778320312 511.0
163.11154174804688 784.0
164.06283569335938 172.0
165.07098388671875 5066.0
166.07861328125 1166.0
167.08929443359375 604.0
168.05755615234375 2983.0
169.06329345703125 1200.0
170.07203674316406 473.0
171.08192443847656 2978.0
172.08929443359375 54092.0
173.09593200683594 14694.0
174.06846618652344 13549.0
175.07713317871094 3268.0
176.0850067138672 289.0
177.09390258789062 817.0
178.0794677734375 373.0
179.08090209960938 306.0
181.06765747070312 2075.0
182.0736541748047 3432.0
183.0824432373047 7896.0
184.08831787109375 1529.0
185.0606689453125 1989.0
186.0662078857422 295.0
187.11285400390625 44261.0
188.08160400390625 451.0
189.09336853027344 252485.0
191.10565185546875 1592.0
193.10324096679688 157.0
194.07171630859375 411.0
195.077880859375 395.0
196.08468627929688 276.0
197.09803771972656 2567.0
198.0685577392578 3555.0
199.0751190185547 1619.0
200.0882110595703 8633.0
201.09193420410156 2354.0
202.09815979003906 1168.0
203.11090087890625 1207.0
204.1041259765625 94.0
205.12388610839844 1634.0
209.09640502929688 879.0
211.1163330078125 412.0
213.0926971435547 4467.0
214.10179138183594 1062.0
215.10914611816406 158356.0
216.09823608398438 428.0
217.11026000976562 662.0
218.1163787841797 307.0
219.10403442382812 220.0
226.09913635253906 147.0
228.11459350585938 501.0
229.12461853027344 1351.0
230.11557006835938 671.0
231.1193389892578 85.0
232.13385009765625 365.0
233.11843872070312 65470.0
240.14064025878906 460.0
241.1267852783203 279.0
242.11932373046875 273.0
243.14015197753906 1229.0
244.13682556152344 169.0
247.1324462890625 1055.0
256.1345520019531 699.0
257.1417541503906 859.0
272.16693115234375 10325.0
289.27520751953125 109.0
290.1781311035156 37664.0

Name: Obtucarbamate A
Precursor_mz: 239.1028203
Cas: 6935-99-5
Adduct: [M+H]+
Mz: 239.1026334
Comment: Major
Smiles: COC(=O)Nc1ccc(C)c(NC(=O)OC)c1
Formula: C11H14N2O4
Mix: Alkaloids-pos-mix31
Rt: [2.869]
Rt_apex: 2.875516123
Rt_start: 2.817733333
Rt_end: 3.00505
Ms1_intensity: 1539011
N_scnas: 28
Ms1_scan_range: [709, 718, 738]
Reci_snr: 0.003575479
Ms2_scan_idx: 1327
Pmz_offset: 0.0
Entropy: 0.9984844923019409
Num Peaks: 53
41.038307189941406 196.0
42.032257080078125 490.0
43.02797317504883 195.0
50.016231536865234 203.0
51.02265548706055 1379.0
53.03798294067383 326.0
59.012691497802734 2222.0
65.03770446777344 3401.0
66.04429626464844 1062.0
77.03831481933594 27695.0
78.0330581665039 2284.0
79.05289459228516 2589.0
80.04670715332031 821.0
89.03716278076172 553.0
90.0450668334961 199.0
91.05328369140625 11597.0
92.04826354980469 22178.0
93.05677032470703 8280.0
94.0653305053711 963.0
95.0464859008789 306.0
102.03443145751953 470.0
103.05619812011719 424.0
104.05013275146484 28982.0
105.03301239013672 1520.0
106.0653076171875 949.0
107.0460205078125 1134.0
108.07939147949219 733.0
118.06464385986328 1168.0
119.05786895751953 5744.0
120.04450225830078 14063.0
121.06298828125 4208.0
122.05322265625 621.0
130.04026794433594 249.0
131.06166076660156 1694.0
132.0451202392578 60079.0
133.0516815185547 475.0
134.0247039794922 189.0
135.09095764160156 530.0
136.07302856445312 703.0
145.0345001220703 204.0
147.05604553222656 176293.0
148.0379180908203 1668.0
149.0470428466797 40684.0
150.0492706298828 524.0
157.03582763671875 418.0
160.02723693847656 1871.0
164.0698699951172 8975.0
173.03485107421875 837.0
175.0509796142578 150318.0
179.08261108398438 4110.0
182.0829620361328 316.0
192.07672119140625 1630.0
207.0799560546875 20169.0

Name: Obtucarbamate A
Precursor_mz: 261.0844099
Cas: 6935-99-5
Adduct: [M+Na]+
Mz: 261.0845776
Comment: Major
Smiles: COC(=O)Nc1ccc(C)c(NC(=O)OC)c1
Formula: C11H14N2O4
Mix: Alkaloids-pos-mix31
Rt: [2.869]
Rt_apex: 2.859566757
Rt_start: 2.817733333
Rt_end: 3.01155
Ms1_intensity: 557677
N_scnas: 29
Ms1_scan_range: [709, 715, 739]
Reci_snr: 0.003638387
Ms2_scan_idx: 1324
Pmz_offset: 0.000845265
Entropy: nan
Num Peaks: 4
179.0769805908203 31.0
218.07679748535156 31.0
229.0670623779297 31.0
261.08111572265625 1201.0

Name: Obtucarbamate A
Precursor_mz: 256.1292468
Cas: 6935-99-5
Adduct: [M+NH4]+
Mz: 256.1291825
Comment: Major
Smiles: COC(=O)Nc1ccc(C)c(NC(=O)OC)c1
Formula: C11H14N2O4
Mix: Alkaloids-pos-mix31
Rt: [2.869]
Rt_apex: 2.863917173
Rt_start: 2.817733333
Rt_end: 3.097033333
Ms1_intensity: 436003
N_scnas: 42
Ms1_scan_range: [709, 716, 752]
Reci_snr: 0.001180806
Ms2_scan_idx: 1339
Pmz_offset: 0.00181104
Entropy: 0.9957609176635742
Num Peaks: 50
42.033119201660156 447.0
51.02259826660156 1124.0
65.03762817382812 1964.0
66.04421997070312 454.0
77.03822326660156 20676.0
78.03296661376953 2698.0
79.05155944824219 2356.0
80.05038452148438 1007.0
89.0410385131836 309.0
91.05451965332031 14529.0
92.04815673828125 23691.0
93.0566635131836 6930.0
94.06522369384766 884.0
95.04911041259766 333.0
102.03431701660156 572.0
103.05465698242188 483.0
104.04857635498047 31097.0
105.05158996582031 1164.0
106.06085205078125 1274.0
107.05025482177734 977.0
108.08072662353516 832.0
118.06298065185547 1023.0
119.06079864501953 6183.0
120.04743957519531 13727.0
121.06285095214844 4905.0
122.05773162841797 669.0
130.04331970214844 92.0
131.05828857421875 1842.0
132.04336547851562 72035.0
133.0482940673828 633.0
134.02455139160156 92.0
135.09243774414062 884.0
136.0745086669922 1224.0
147.05587768554688 250159.0
148.0633544921875 2110.0
149.04685974121094 51868.0
150.05426025390625 1399.0
157.03915405273438 405.0
160.04656982421875 2415.0
163.08790588378906 314.0
164.0714874267578 14458.0
173.03463745117188 785.0
175.05078125 352094.0
179.08053588867188 10736.0
180.0697021484375 378.0
182.07896423339844 912.0
192.0764923095703 2387.0
207.07769775390625 152662.0
239.1039276123047 1599.0
250.09033203125 92.0

Name: Graveoline
Precursor_mz: 280.0971278
Cas: 485-61-0
Adduct: [M+H]+
Mz: 280.0968197
Comment: Major
Smiles: Cn1c(-c2ccc3c(c2)OCO3)cc(=O)c2ccccc21
Formula: C17H13NO3
Mix: Alkaloids-pos-mix31
Rt: [3.234]
Rt_apex: 3.233780515
Rt_start: 3.142533333
Rt_end: 5.28665
Ms1_intensity: 8422853
N_scnas: 437
Ms1_scan_range: [759, 773, 1197]
Reci_snr: 0.000165462
Ms2_scan_idx: 1628
Pmz_offset: 0.001105022
Entropy: 0.9888391494750977
Num Peaks: 134
43.01787185668945 184.0
51.02368927001953 538.0
55.01844787597656 576.0
65.03660583496094 1272.0
77.03958892822266 8102.0
79.05543518066406 1602.0
89.03853607177734 19332.0
90.05044555664062 256.0
91.05333709716797 6237.0
92.0483169555664 2060.0
93.0338134765625 586.0
95.04653930664062 186.0
101.03755950927734 635.0
102.04582977294922 241.0
103.0548324584961 9519.0
104.05162048339844 1237.0
105.03594207763672 6358.0
106.06536865234375 13209.0
107.0504379272461 837.0
115.05126190185547 1256.0
116.0499038696289 26368.0
117.03767395019531 3500.0
118.06623077392578 1495.0
119.05028533935547 1996.0
120.04610443115234 2210.0
121.02754974365234 5867.0
122.03623962402344 3549.0
126.04668426513672 338.0
127.05388641357422 827.0
128.04763793945312 1823.0
129.0691680908203 1760.0
130.06594848632812 16820.0
131.07618713378906 1599.0
132.04519653320312 1456.0
133.0663299560547 305.0
134.06214904785156 10609.0
135.0453643798828 1213.0
139.05223083496094 407.0
140.05023193359375 890.0
141.0751190185547 392.0
142.06361389160156 302.0
144.04757690429688 25744.0
145.0531768798828 1948.0
146.06056213378906 1786.0
147.04762268066406 8075.0
149.02484130859375 5720.0
150.04248046875 271.0
151.05667114257812 1810.0
152.06390380859375 6483.0
153.0709991455078 1980.0
154.06748962402344 18228.0
155.07595825195312 2728.0
156.0806884765625 4514.0
158.0610809326172 6800.0
159.0701141357422 4412.0
160.08058166503906 645.0
162.05752563476562 1201.0
163.0487518310547 446.0
164.06277465820312 335.0
165.07272338867188 6573.0
166.0695037841797 1585.0
167.08016967773438 6396.0
168.08116149902344 714.0
170.0628204345703 543.0
172.07818603515625 359.0
173.02386474609375 573.0
174.0535888671875 230.0
175.04736328125 209.0
176.06260681152344 1334.0
177.06956481933594 1971.0
178.0662841796875 22605.0
179.0751953125 20726.0
180.08131408691406 12938.0
181.09024047851562 1833.0
182.06411743164062 1783.0
183.069091796875 113906.0
184.0768280029297 67142.0
189.0662841796875 453.0
190.06715393066406 1992.0
191.07261657714844 5887.0
192.08071899414062 6522.0
193.0895233154297 13665.0
194.09901428222656 21073.0
195.07192993164062 1788.0
196.07872009277344 25442.0
197.08416748046875 2560.0
202.07215881347656 326.0
203.0768280029297 1673.0
204.08399963378906 57416.0
205.0896453857422 6349.0
206.06350708007812 4310.0
207.06997680664062 70676.0
208.07888793945312 16312.0
209.08416748046875 37197.0
210.09593200683594 2909.0
211.07139587402344 267.0
212.0736541748047 1077.0
216.0857696533203 688.0
217.09158325195312 1044.0
218.06240844726562 949.0
219.0686492919922 2205.0
220.07928466796875 69418.0
221.0859832763672 16159.0
222.094970703125 152936.0
223.0999755859375 3578.0
224.1114501953125 18746.0
226.09906005859375 181.0
232.07818603515625 2924.0
233.0904998779297 5837.0
234.0942840576172 10476.0
235.0657958984375 39806.0
236.07598876953125 33323.0
237.08401489257812 27099.0
238.08985900878906 795.0
240.06878662109375 844.0
246.0547332763672 384.0
248.0752716064453 15729.0
249.0775604248047 1861.0
250.09075927734375 164223.0
251.09933471679688 8084.0
252.10325622558594 112367.0
262.0799255371094 579.0
263.0622863769531 1313.0
264.07159423828125 79302.0
265.0759582519531 166360.0
278.086181640625 15368.0
279.0933837890625 275.0
279.24578857421875 4577.0
280.1047668457031 867854.0
280.9697570800781 2812.0
281.0779724121094 2196.0
281.3603515625 998.0
281.7159118652344 221.0
282.92791748046875 176.0

Name: D-tetrahydropalmatine
Precursor_mz: 356.1884148
Cas: 3520-14-7
Adduct: [M+H]+
Mz: 356.1856347
Comment: Major
Smiles: COc1cc2c(cc1OC)[C@H]1Cc3ccc(OC)c(OC)c3CN1CC2
Formula: C21H25NO4
Mix: Alkaloids-pos-mix31
Rt: [2.717]
Rt_apex: 2.721833804
Rt_start: 2.673733333
Rt_end: 2.8839
Ms1_intensity: 4545213
N_scnas: 33
Ms1_scan_range: [685, 694, 719]
Reci_snr: 4.08e-05
Ms2_scan_idx: 1214
Pmz_offset: 0.002741209
Entropy: 0.9474402070045471
Num Peaks: 178
42.03314208984375 212.0
44.052085876464844 348.0
55.01838302612305 153.0
75.04360961914062 202.0
77.03826904296875 2453.0
78.04293060302734 274.0
79.0541000366211 3467.0
89.03711700439453 516.0
90.04501342773438 713.0
91.05323028564453 4498.0
92.06167602539062 312.0
93.06755065917969 575.0
94.03805541992188 123.0
95.0491714477539 136.0
102.04571533203125 828.0
103.05186462402344 5132.0
104.06008911132812 1462.0
105.07035064697266 12961.0
106.04067993164062 210.0
107.04886627197266 4991.0
108.05452728271484 565.0
109.06635284423828 280.0
115.0526351928711 841.0
116.04977416992188 179.0
117.06031799316406 563.0
118.0645751953125 2835.0
119.04861450195312 1866.0
120.05673217773438 2345.0
121.06600952148438 6115.0
122.07020568847656 984.0
123.08167266845703 241.0
124.05197143554688 453.0
127.05532836914062 175.0
128.06019592285156 230.0
129.0690155029297 333.0
130.0657958984375 4671.0
131.0728302001953 38294.0
132.05471801757812 679.0
133.06455993652344 7643.0
134.0733642578125 7243.0
135.0435791015625 7079.0
136.0483856201172 1685.0
137.06185913085938 535.0
138.06753540039062 239.0
139.07192993164062 682.0
143.04531860351562 240.0
144.0558319091797 245.0
145.06483459472656 543.0
146.06039428710938 3079.0
147.06617736816406 6218.0
148.0771026611328 69867.0
149.06065368652344 2402.0
150.06809997558594 72865.0
151.0771942138672 10691.0
152.0862274169922 199.0
153.09165954589844 195.0
157.06210327148438 154.0
158.0714874267578 1578.0
159.06993103027344 16679.0
160.0750732421875 8230.0
161.08517456054688 3118.0
162.05377197265625 679.0
163.07186889648438 448.0
164.08236694335938 777.0
165.09237670898438 223673.0
166.08016967773438 189.0
171.06883239746094 152.0
172.07431030273438 166.0
173.0790557861328 307.0
174.05523681640625 4181.0
175.0731658935547 1307.0
176.07171630859375 181300.0
177.07870483398438 138207.0
178.08106994628906 204.0
179.10693359375 409.0
180.1037139892578 292.0
187.1029815673828 157.0
188.0697784423828 410.0
189.08731079101562 3721.0
190.08628845214844 26164.0
191.08985900878906 803.0
192.1038360595703 1316594.0
193.14390563964844 479.0
194.07728576660156 167.0
195.0775909423828 246.0
201.0896453857422 98.0
202.07591247558594 239.0
203.08860778808594 292.0
204.10182189941406 4387.0
205.1074981689453 5281.0
206.11968994140625 174.0
207.06973266601562 157.0
208.0928192138672 152.0
209.092041015625 279.0
215.08206176757812 162.0
216.09584045410156 109.0
218.06631469726562 218.0
219.08294677734375 252.0
220.08319091796875 278.0
221.0940704345703 682.0
222.09890747070312 266.0
223.07456970214844 168.0
224.07968139648438 236.0
226.0882568359375 96.0
228.10365295410156 95.0
231.08059692382812 129.0
232.08433532714844 317.0
233.0945281982422 679.0
234.10475158691406 503.0
235.0741424560547 291.0
236.10159301757812 363.0
237.09239196777344 617.0
238.09608459472656 462.0
239.11058044433594 198.0
242.1233367919922 96.0
243.12448120117188 217.0
245.0934295654297 236.0
246.09188842773438 99.0
247.1144256591797 274.0
248.08604431152344 212.0
249.09500122070312 815.0
250.10157775878906 1013.0
251.11016845703125 477.0
252.107421875 310.0
253.12452697753906 396.0
254.12353515625 214.0
256.1341857910156 85.0
261.0877685546875 589.0
262.1046142578125 321.0
263.1052551269531 662.0
264.11004638671875 1208.0
265.1236267089844 1516.0
266.09796142578125 612.0
267.1015625 406.0
268.109375 257.0
269.1167907714844 220.0
270.1468505859375 97.0
275.12872314453125 793.0
276.1165771484375 246.0
277.1155090332031 623.0
278.1256408691406 795.0
279.10009765625 899.0
280.1349792480469 1702.0
281.1176452636719 1881.0
282.12322998046875 665.0
283.1235656738281 181.0
284.1280212402344 114.0
290.12274169921875 551.0
291.1011962890625 228.0
292.10528564453125 670.0
293.1183166503906 5482.0
294.1307067871094 1274.0
295.12554931640625 1109.0
296.1341552734375 2234.0
297.11785888671875 677.0
298.1395263671875 1800.0
306.11334228515625 1491.0
307.12823486328125 594.0
308.142333984375 8537.0
309.11370849609375 2074.0
310.14837646484375 1686.0
311.15753173828125 707.0
312.1609191894531 3665.0
313.14105224609375 452.0
322.1448974609375 5893.0
323.1506652832031 1111.0
325.13909912109375 733.0
326.139404296875 2927.0
338.1441650390625 150.0
339.1642761230469 2334.0
340.1574401855469 19442.0
341.16241455078125 6088.0
355.09686279296875 1094.0
356.18988037109375 570092.0
357.1625671386719 283.0
357.3774108886719 271.0
357.61090087890625 183.0
357.7170715332031 110.0

Name: Laurolitsine
Precursor_mz: 314.1395653
Cas: 5890-18-6
Adduct: [M+H]+
Mz: 314.1386845
Comment: Major
Smiles: COc1cc2c(cc1O)C[C@@H]1NCCc3cc(O)c(OC)c-2c31
Formula: C18H19NO4
Mix: Alkaloids-pos-mix31
Rt: [1.961]
Rt_apex: 1.96350553
Rt_start: 1.924416667
Rt_end: 2.150766667
Ms1_intensity: 1497260
N_scnas: 42
Ms1_scan_range: [556, 564, 599]
Reci_snr: 0.000270551
Ms2_scan_idx: 832
Pmz_offset: 0.002594326
Entropy: 0.9987123608589172
Num Peaks: 76
55.01740264892578 197.0
115.05125427246094 449.0
139.0538787841797 531.0
141.07179260253906 1331.0
150.04763793945312 291.0
151.05322265625 1509.0
152.06044006347656 1226.0
153.06752014160156 1303.0
154.07794189453125 500.0
155.08642578125 1343.0
163.0541229248047 207.0
164.06097412109375 284.0
165.06912231445312 17936.0
166.0767364501953 5730.0
167.08560180664062 632.0
168.05931091308594 1150.0
169.0614013671875 492.0
176.06072998046875 6518.0
177.07142639160156 66546.0
178.0737762451172 1182.0
179.0864715576172 1320.0
181.06568908691406 760.0
182.0754852294922 311.0
183.08238220214844 6207.0
189.0701446533203 966.0
190.0768280029297 830.0
191.086181640625 2096.0
193.0661163330078 5124.0
194.07359313964844 79083.0
195.0778045654297 1605.0
196.05514526367188 465.0
197.06053161621094 700.0
201.0600128173828 667.0
204.0599365234375 1041.0
205.06753540039062 93894.0
206.07559204101562 2821.0
207.0841064453125 1280.0
208.08494567871094 561.0
209.09429931640625 1666.0
210.06541442871094 408.0
211.07342529296875 11077.0
212.08181762695312 263.0
213.08851623535156 183.0
218.07069396972656 334.0
219.0811004638672 976.0
220.0896759033203 171.0
221.06092834472656 6733.0
222.06777954101562 62946.0
223.07481384277344 6732.0
224.04632568359375 176.0
225.0936279296875 1096.0
226.09693908691406 1707.0
227.06654357910156 552.0
233.06263732910156 11882.0
234.07281494140625 3203.0
235.07440185546875 651.0
236.08676147460938 814.0
237.0926513671875 143476.0
239.07395935058594 23260.0
240.07530212402344 187.0
247.0816192626953 501.0
248.08853149414062 292.0
249.05319213867188 432.0
250.06411743164062 5379.0
251.07264709472656 6641.0
253.09130859375 1443.0
254.0947265625 8333.0
264.0761413574219 524.0
265.0873718261719 105893.0
266.09136962890625 5372.0
267.0674743652344 15423.0
268.07061767578125 230.0
281.0897216796875 375.0
282.0905456542969 12934.0
297.11334228515625 25160.0
314.1405029296875 190.0

Name: 13-Methylberberine chloride
Precursor_mz: 350.1386789
Cas: 54260-72-9
Adduct: [M]+
Mz: 350.1386845
Comment: Major
Smiles: COc1ccc2c(C)c3[n+](cc2c1OC)CCc1cc2c(cc1-3)OCO2
Formula: C21H20NO4+
Mix: Alkaloids-pos-mix31
Rt: [3.108]
Rt_apex: 3.108572468
Rt_start: 3.063883333
Rt_end: 4.592033333
Ms1_intensity: 9934831
N_scnas: 274
Ms1_scan_range: [747, 754, 1022]
Reci_snr: 0.000129159
Ms2_scan_idx: 1518
Pmz_offset: 0.000747538
Entropy: 0.9914373159408569
Num Peaks: 136
103.05609893798828 185.0
115.05409240722656 114.0
118.06147003173828 111.0
131.04867553710938 185.0
135.04515075683594 88.0
139.05035400390625 88.0
140.04669189453125 96.0
141.05323791503906 211.0
146.06033325195312 427.0
147.0644073486328 1606.0
150.04225158691406 135.0
151.05299377441406 170.0
152.06019592285156 100.0
154.06202697753906 161.0
159.0450897216797 469.0
163.0556640625 366.0
164.06431579589844 167.0
165.06346130371094 159.0
166.06744384765625 90.0
167.07264709472656 196.0
169.05384826660156 530.0
174.04591369628906 130.0
175.05824279785156 298.0
176.06605529785156 311.0
177.0655517578125 209.0
178.0641326904297 225.0
179.08242797851562 110.0
180.08103942871094 106.0
182.0581512451172 156.0
183.06690979003906 537.0
188.0523681640625 116.0
189.0621337890625 435.0
190.06686401367188 680.0
191.07424926757812 1500.0
192.0843048095703 284.0
195.07554626464844 299.0
196.06663513183594 180.0
201.05572509765625 92.0
202.07781982421875 399.0
203.07852172851562 739.0
204.07968139648438 1396.0
205.09133911132812 776.0
206.0954132080078 543.0
207.067626953125 113.0
208.0745086669922 211.0
209.07977294921875 102.0
211.06698608398438 100.0
213.07589721679688 90.0
214.0644073486328 122.0
215.07168579101562 518.0
216.08131408691406 732.0
217.08917236328125 1069.0
218.09730529785156 1351.0
219.0724639892578 3430.0
220.08102416992188 1687.0
221.08563232421875 373.0
222.08834838867188 384.0
228.08448791503906 205.0
229.0859375 176.0
230.10235595703125 1151.0
231.078369140625 950.0
232.0799560546875 1103.0
233.08370971679688 5551.0
234.09176635742188 5065.0
235.09556579589844 394.0
236.11227416992188 513.0
243.10467529296875 225.0
244.07276916503906 370.0
245.08673095703125 1231.0
246.08737182617188 3319.0
247.0966796875 1470.0
248.1058349609375 5322.0
249.07717895507812 3752.0
250.1236572265625 275.0
257.08050537109375 120.0
258.0940246582031 852.0
259.09600830078125 578.0
260.1089782714844 2722.0
261.0785827636719 6144.0
262.0885925292969 12794.0
263.0960388183594 8038.0
264.1053771972656 3472.0
271.07244873046875 87.0
272.0715026855469 147.0
273.0840148925781 701.0
274.0867614746094 4533.0
275.09368896484375 3112.0
276.1001281738281 16960.0
277.08270263671875 26295.0
278.120849609375 8251.0
286.08514404296875 229.0
288.1015319824219 22783.0
289.10760498046875 73927.0
290.0963134765625 9313.0
291.089111328125 39248.0
292.09796142578125 568747.0
293.0989685058594 430.0
301.0834655761719 155.0
302.0826721191406 3031.0
303.0908508300781 8390.0
304.0982666015625 58476.0
305.10736083984375 36981.0
306.11566162109375 976463.0
307.1354675292969 1971.0
308.0929260253906 92.0
317.06939697265625 3252.0
318.1147766113281 333403.0
319.086669921875 9920.0
320.09521484375 379658.0
321.1028137207031 308.0
322.14727783203125 121.0
332.09405517578125 245495.0
334.1097717285156 1049721.0
335.11865234375 552922.0
336.1213073730469 283.0
349.0666809082031 5369.0
350.1451416015625 825222.0
351.1174011230469 2800.0
351.2357482910156 2935.0
351.36199951171875 348.0
351.5487976074219 991.0
351.654052734375 251.0
351.943603515625 193.0
352.04364013671875 177.0
352.15423583984375 114.0
352.5440979003906 135.0
352.8682861328125 110.0
353.1424865722656 173.0
353.3113098144531 109.0
353.5276184082031 102.0
353.9657897949219 92.0
354.1294860839844 88.0
354.652587890625 95.0
354.8799133300781 89.0
355.17340087890625 94.0
355.9381408691406 95.0

Name: 8-Oxocoptisine
Precursor_mz: 336.0871789
Cas: 19716-61-1
Adduct: [M+H]+
Mz: 336.086649
Comment: Major
Smiles: O=c1c2c3c(ccc2cc2n1CCc1cc4c(cc1-2)OCO4)OCO3
Formula: C19H13NO5
Mix: Alkaloids-pos-mix32
Rt: [4.114]
Rt_apex: 4.117516998
Rt_start: 4.056816667
Rt_end: 4.309116667
Ms1_intensity: 1745998
N_scnas: 36
Ms1_scan_range: [894, 903, 931]
Reci_snr: 0.003679894
Ms2_scan_idx: 2288
Pmz_offset: 0.00218314
Entropy: 0.9934130907058716
Num Peaks: 116
77.03821563720703 192.0
91.05584716796875 298.0
103.05321502685547 248.0
105.03287506103516 683.0
107.05023956298828 510.0
115.0555648803711 216.0
116.04969024658203 184.0
121.0273208618164 200.0
128.04739379882812 397.0
131.04864501953125 676.0
135.03695678710938 196.0
144.04562377929688 249.0
146.02297973632812 223.0
148.0394287109375 1484.0
149.04855346679688 454.0
150.049072265625 198.0
151.056396484375 1040.0
152.06361389160156 1147.0
153.0707244873047 310.0
156.0453338623047 256.0
159.05035400390625 232.0
160.05543518066406 537.0
164.06427001953125 307.0
165.06881713867188 1957.0
166.0709991455078 186.0
167.08529663085938 646.0
172.04104614257812 822.0
174.0569610595703 320.0
175.05447387695312 249.0
176.06227111816406 1607.0
177.06736755371094 2354.0
178.0753173828125 1749.0
179.08425903320312 1776.0
180.07720947265625 271.0
181.06724548339844 654.0
186.0619659423828 623.0
187.06637573242188 204.0
188.0619354248047 207.0
189.0717315673828 1578.0
190.06874084472656 978.0
191.07614135742188 1994.0
192.08035278320312 3536.0
193.0911102294922 498.0
194.09669494628906 1840.0
195.07940673828125 749.0
198.0523223876953 203.0
201.0576629638672 267.0
202.0677947998047 2309.0
203.0724639892578 3415.0
204.0836181640625 19626.0
205.06715393066406 6489.0
206.06312561035156 1355.0
207.07766723632812 5375.0
208.0784912109375 946.0
209.0776824951172 405.0
210.0609588623047 175.0
211.06692504882812 297.0
214.06640625 512.0
215.0757293701172 216.0
216.08331298828125 446.0
217.0663604736328 1379.0
218.06201171875 683.0
219.0682373046875 1135.0
220.07887268066406 8023.0
221.0792999267578 1882.0
222.0945587158203 7771.0
223.07440185546875 1214.0
224.0816192626953 397.0
230.05972290039062 990.0
231.0655059814453 543.0
232.0798797607422 18888.0
233.06649780273438 5220.0
234.08740234375 1879.0
235.06752014160156 34334.0
236.07339477539062 4090.0
237.07925415039062 1663.0
238.08941650390625 289.0
242.06201171875 204.0
244.07708740234375 198.0
245.05809020996094 566.0
246.06088256835938 406.0
247.06350708007812 5775.0
248.0703887939453 9378.0
249.0771026611328 3385.0
250.0902862548828 49392.0
251.09886169433594 851.0
252.102783203125 2131.0
259.0643005371094 460.0
260.074951171875 8871.0
261.0830383300781 5690.0
262.0885314941406 11516.0
263.0617980957031 14059.0
264.07110595703125 9413.0
265.0754699707031 8643.0
266.08172607421875 370.0
275.0610046386719 14868.0
276.0650634765625 5966.0
277.0826110839844 2746.0
278.0880126953125 42420.0
279.0928649902344 1785.0
280.09954833984375 35505.0
288.0657043457031 1531.0
289.0812683105469 6511.0
290.08905029296875 21140.0
291.0602722167969 2566.0
292.06671142578125 77142.0
293.0724792480469 48246.0
304.0663757324219 1009.0
305.06561279296875 226.0
306.0836486816406 13879.0
307.0862121582031 3524.0
308.0953063964844 395160.0
321.06500244140625 731.0
334.0763244628906 47936.0
335.056884765625 643.0
336.09033203125 199134.0

Name: 8-Oxocoptisine
Precursor_mz: 358.0685937
Cas: 19716-61-1
Adduct: [M+Na]+
Mz: 358.0685932
Comment: Major
Smiles: O=c1c2c3c(ccc2cc2n1CCc1cc4c(cc1-2)OCO4)OCO3
Formula: C19H13NO5
Mix: Alkaloids-pos-mix32
Rt: [4.114]
Rt_apex: 4.092359391
Rt_start: 4.056816667
Rt_end: 5.70685
Ms1_intensity: 160907
N_scnas: 343
Ms1_scan_range: [894, 899, 1238]
Reci_snr: 0.012314199
Ms2_scan_idx: 2290
Pmz_offset: 0.000731674
Entropy: 0.4777173697948456
Num Peaks: 6
205.08323669433594 123.0
221.06887817382812 93.0
236.06692504882812 93.0
279.08349609375 123.0
293.0604553222656 123.0
358.07257080078125 4526.0

Name: Methyl anthranilate
Precursor_mz: 152.0694026
Cas: 134-20-3
Adduct: [M+H]+
Mz: 152.070605
Comment: Major
Smiles: COC(=O)c1ccccc1N
Formula: C8H9NO2
Mix: Alkaloids-pos-mix32
Rt: [3.248]
Rt_apex: 3.24442599
Rt_start: 3.202683333
Rt_end: 3.307683333
Ms1_intensity: 59910
N_scnas: 14
Ms1_scan_range: [769, 775, 784]
Reci_snr: 0.087015953
Ms2_scan_idx: 1746
Pmz_offset: 0.000100107
Entropy: 0.9855417609214783
Num Peaks: 13
41.036415100097656 154.0
42.037620544433594 93.0
51.02254104614258 123.0
52.01874542236328 123.0
58.067684173583984 123.0
63.02305221557617 154.0
64.01959991455078 93.0
65.0398178100586 81839.0
66.03616333007812 734.0
90.03153991699219 304.0
91.04102325439453 92.0
92.05209350585938 59491.0
120.04730224609375 36468.0

Name: Lupinine
Precursor_mz: 170.1535129
Cas: 486-70-4
Adduct: [M+H]+
Mz: 170.1539407
Comment: Major
Smiles: OC[C@@H]1CCCN2CCCC[C@H]12
Formula: C10H19NO
Mix: Alkaloids-pos-mix32
Rt: [0.572]
Rt_apex: 0.57808874
Rt_start: 0.374216667
Rt_end: 1.55595
Ms1_intensity: 973271
N_scnas: 383
Ms1_scan_range: [114, 162, 498]
Reci_snr: 0.000716216
Ms2_scan_idx: 233
Pmz_offset: 0.001449769
Entropy: 0.9993954300880432
Num Peaks: 54
41.038330078125 4378.0
42.0331916809082 1114.0
43.05470275878906 599.0
44.05027770996094 2740.0
45.032745361328125 90.0
51.0236930847168 196.0
53.03801727294922 644.0
54.032981872558594 414.0
55.05488967895508 5031.0
56.049591064453125 2286.0
57.034122467041016 121.0
58.06464767456055 723.0
65.0377426147461 505.0
67.05406188964844 3144.0
68.04829406738281 907.0
69.06966400146484 1241.0
70.0645751953125 3186.0
71.05122375488281 88.0
77.03836059570312 1840.0
79.05294799804688 2580.0
80.04801177978516 1510.0
81.0682601928711 2764.0
82.064453125 3957.0
83.0731201171875 753.0
84.07894134521484 4940.0
91.05333709716797 1689.0
93.06901550292969 1337.0
94.06402587890625 2172.0
95.07117462158203 508.0
96.0809326171875 11621.0
97.08772277832031 1397.0
98.09559631347656 9515.0
105.06903076171875 395.0
106.06103515625 69.0
107.08674621582031 469.0
108.07945251464844 1900.0
109.08847045898438 535.0
110.09628295898438 4695.0
111.10133361816406 300.0
112.11243438720703 98.0
114.09291076660156 74.0
120.07839965820312 331.0
121.08622741699219 176.0
122.09516143798828 6382.0
123.1036148071289 361.0
124.11151885986328 19732.0
136.1107635498047 15968.0
137.1211700439453 6458.0
138.12376403808594 159.0
148.11314392089844 191.0
150.12844848632812 1504.0
152.14352416992188 38105.0
169.63668823242188 365.0
170.1543426513672 137060.0

Name: Cephaeline
Precursor_mz: 467.2925266
Cas: 483-17-0
Adduct: [M+H]+
Mz: 467.2904342
Comment: Major
Smiles: CC[C@H]1CN2CCc3cc(OC)c(OC)cc3[C@@H]2C[C@@H]1C[C@H]1NCCc2cc(O)c(OC)cc21
Formula: C28H38N2O4
Mix: Alkaloids-pos-mix32
Rt: [1.834]
Rt_apex: 1.825768094
Rt_start: 1.786116667
Rt_end: 2.203266667
Ms1_intensity: 1305575
N_scnas: 62
Ms1_scan_range: [560, 566, 623]
Reci_snr: 0.004327732
Ms2_scan_idx: 720
Pmz_offset: 0.003099851
Entropy: 0.9750183820724487
Num Peaks: 128
55.05480194091797 568.0
82.06304931640625 294.0
84.08138275146484 220.0
91.0518569946289 515.0
93.06886291503906 202.0
95.08470153808594 214.0
98.09544372558594 281.0
103.0532455444336 1211.0
105.07030487060547 773.0
107.04882049560547 215.0
110.09169006347656 603.0
115.0525894165039 390.0
117.06634521484375 559.0
118.06604766845703 354.0
119.05009460449219 238.0
120.07975006103516 707.0
121.0628662109375 491.0
122.09806823730469 225.0
128.0585479736328 201.0
129.06895446777344 395.0
130.06094360351562 211.0
131.04867553710938 1873.0
133.06288146972656 701.0
134.07168579101562 206.0
135.07940673828125 1405.0
136.04833984375 215.0
137.0585174560547 1009.0
144.05577087402344 192.0
145.0614013671875 724.0
146.05694580078125 630.0
147.07461547851562 202.0
148.07704162597656 769.0
149.05715942382812 354.0
150.06802368164062 1473.0
151.07713317871094 6838.0
157.06732177734375 167.0
159.07872009277344 738.0
160.0821075439453 1822.0
161.063720703125 591.0
162.0894317626953 340.0
163.07537841796875 6465.0
164.08229064941406 817.0
165.0904998779297 11360.0
171.08160400390625 198.0
173.08636474609375 214.0
174.06442260742188 403.0
175.07679748535156 928.0
176.07908630371094 2101.0
177.0879669189453 1954.0
178.08287048339844 1798.0
179.10684204101562 982.0
180.10174560546875 8402.0
185.12522888183594 610.0
186.08689880371094 187.0
187.0721893310547 675.0
188.07354736328125 496.0
189.0891571044922 2595.0
190.09007263183594 4875.0
191.10528564453125 6722.0
192.10374450683594 10745.0
193.12042236328125 471.0
194.11630249023438 304.0
201.091552734375 904.0
202.1237030029297 1183.0
203.1005096435547 1099.0
204.10372924804688 1053.0
205.1094207763672 5175.0
206.11557006835938 4123.0
211.10980224609375 394.0
212.10806274414062 284.0
213.12301635742188 292.0
214.12396240234375 810.0
215.10049438476562 446.0
216.10812377929688 419.0
217.1243133544922 714.0
218.11802673339844 1401.0
220.13307189941406 3007.0
222.14691162109375 319.0
226.12191772460938 206.0
228.1014404296875 512.0
229.1199188232422 458.0
230.1172637939453 5255.0
231.12530517578125 1822.0
232.1355438232422 396.0
240.1358184814453 247.0
242.11666870117188 863.0
243.12875366210938 972.0
244.13197326660156 4468.0
245.1416473388672 639.0
246.14901733398438 101697.0
248.16551208496094 340.0
255.14456176757812 219.0
256.1385498046875 1760.0
257.1479797363281 903.0
258.14813232421875 4092.0
259.1570129394531 274.0
260.1632995605469 2457.0
262.18402099609375 354.0
270.1490173339844 1734.0
271.1602478027344 290.0
272.1664123535156 10305.0
274.1820068359375 30749.0
284.1680908203125 886.0
285.1720275878906 543.0
286.1824645996094 4236.0
288.1944274902344 2194.0
298.18060302734375 485.0
300.2001953125 1343.0
378.1760559082031 203.0
394.2064514160156 242.0
406.2163391113281 242.0
408.218505859375 221.0
418.2342529296875 274.0
421.2531433105469 274.0
422.2330017089844 10005.0
433.24151611328125 185.0
434.2293701171875 886.0
435.2505798339844 802.0
436.22900390625 341.0
437.24078369140625 424.0
448.2518310546875 738.0
450.26556396484375 19092.0
451.263671875 768.0
452.2688903808594 184.0
465.2778015136719 2109.0
465.8652648925781 550.0
467.2929992675781 317914.0
468.3037414550781 259.0

Name: Cephaeline
Precursor_mz: 489.2707803
Cas: 483-17-0
Adduct: [M+Na]+
Mz: 489.2723784
Comment: Major
Smiles: CC[C@H]1CN2CCc3cc(OC)c(OC)cc3[C@@H]2C[C@@H]1C[C@H]1NCCc2cc(O)c(OC)cc21
Formula: C28H38N2O4
Mix: Alkaloids-pos-mix32
Rt: [1.834]
Rt_apex: 1.831132161
Rt_start: 1.79295
Rt_end: 1.92645
Ms1_intensity: 6049
N_scnas: 19
Ms1_scan_range: [561, 567, 581]
Reci_snr: 0.018066465
Ms2_scan_idx: 703
Pmz_offset: 4.43e-06
Entropy: 1.0
Num Peaks: 2
186.04876708984375 31.0
489.2789001464844 410.0

Name: Catharanthine Tartrate(2468-21-5(free base))
Precursor_mz: 337.1918704
Cas: T2782L
Adduct: [M+H]+
Mz: 337.1910545
Comment: Major
Smiles: CCC1=C[C@@H]2CN3CCc4c([nH]c5ccccc45)[C@@](C(=O)OC)(C2)[C@@H]13
Formula: C21H24N2O2
Mix: Alkaloids-pos-mix32
Rt: [2.931]
Rt_apex: 2.928864263
Rt_start: 2.85555
Rt_end: 3.252183333
Ms1_intensity: 1857656
N_scnas: 56
Ms1_scan_range: [719, 729, 776]
Reci_snr: 4.77e-05
Ms2_scan_idx: 1544
Pmz_offset: 0.000106789
Entropy: 0.9860125780105591
Num Peaks: 21
59.01375198364258 423.0
77.03829193115234 541.0
91.05459594726562 1189.0
93.06892395019531 4344.0
103.05046844482422 154.0
105.06749725341797 306.0
115.05718231201172 189.0
117.06642150878906 295.0
127.05377197265625 217.0
130.0674285888672 92.0
133.0662078857422 564.0
143.0738983154297 545.0
144.08114624023438 27183.0
165.09242248535156 924.0
173.10308837890625 677.0
218.0953826904297 154.0
219.11000061035156 250.0
220.11447143554688 92.0
234.1219940185547 169.0
248.1479949951172 154.0
337.1875305175781 2735.0

Name: Hydrastine
Precursor_mz: 384.144879
Cas: 118-08-1
Adduct: [M+H]+
Mz: 384.1441639
Comment: Major
Smiles: COc1ccc2c(c1OC)C(=O)O[C@@H]2[C@H]1c2cc3c(cc2CCN1C)OCO3
Formula: C21H21NO6
Mix: Alkaloids-pos-mix32
Rt: [2.456]
Rt_apex: 2.454436681
Rt_start: 2.40325
Rt_end: 2.952033333
Ms1_intensity: 5759512
N_scnas: 79
Ms1_scan_range: [653, 661, 733]
Reci_snr: 5.71e-05
Ms2_scan_idx: 1134
Pmz_offset: 0.002108216
Entropy: 0.9953900575637817
Num Peaks: 176
44.04926300048828 26864.0
65.0376205444336 247.0
77.0369873046875 324.0
79.05404663085938 239.0
89.03837585449219 306.0
91.05451202392578 3159.0
102.04564666748047 216.0
103.05464935302734 1144.0
105.03287506103516 177.0
107.05024719238281 308.0
115.05406188964844 702.0
117.0556869506836 586.0
118.06449127197266 191.0
119.04700469970703 4294.0
121.0257797241211 334.0
122.03601837158203 657.0
130.04330444335938 389.0
131.04864501953125 1593.0
132.08042907714844 1107.0
134.03753662109375 213.0
135.04348754882812 2978.0
136.05484008789062 217.0
137.06011962890625 254.0
138.0657958984375 375.0
143.0418701171875 215.0
145.06304931640625 262.0
146.05520629882812 177.0
147.0439453125 767.0
148.0531005859375 475.0
149.06056213378906 14302.0
150.04393005371094 971.0
151.0512237548828 845.0
152.06362915039062 834.0
153.06724548339844 717.0
159.0450439453125 2805.0
160.0767364501953 1449.0
161.06190490722656 1634.0
162.05543518066406 442.0
163.03770446777344 1313.0
164.06068420410156 825.0
165.0670166015625 4929.0
166.0818634033203 1833.0
167.08348083496094 310.0
173.05677795410156 416.0
174.05511474609375 1408.0
175.06190490722656 2675.0
176.07159423828125 27600.0
177.07110595703125 2431.0
178.0771942138672 3386.0
179.0861358642578 1994.0
180.0376739501953 376.0
181.06158447265625 1053.0
187.0395050048828 973.0
188.07350158691406 7079.0
189.07752990722656 12095.0
190.08616638183594 398305.0
191.09165954589844 3011.0
192.0609130859375 1445.0
193.05210876464844 7827.0
194.0751953125 8946.0
195.0794219970703 1057.0
196.08229064941406 369.0
197.06411743164062 247.0
201.07159423828125 340.0
202.0737762451172 430.0
203.08445739746094 605.0
204.0575714111328 7472.0
205.06716918945312 5782.0
206.07321166992188 4375.0
207.07766723632812 2592.0
208.0906524658203 1140.0
209.0979766845703 3319.0
211.07508850097656 206.0
216.05856323242188 448.0
217.06637573242188 2006.0
218.07237243652344 1658.0
219.07862854003906 2031.0
220.0476531982422 2576.0
221.06053161621094 14426.0
222.07156372070312 15980.0
223.07650756835938 2567.0
224.08583068847656 2034.0
225.0511016845703 255.0
229.06675720214844 397.0
231.0825653076172 231.0
232.0542449951172 12667.0
233.06222534179688 4410.0
234.0702362060547 9543.0
235.0718231201172 8235.0
236.08201599121094 2289.0
237.09222412109375 6130.0
238.0655975341797 408.0
239.11041259765625 3173.0
240.08139038085938 294.0
244.05078125 870.0
245.0625 2143.0
246.0718994140625 1620.0
247.07455444335938 4964.0
248.0482940673828 1291.0
249.0571746826172 19417.0
250.0636749267578 41250.0
251.0721893310547 22944.0
252.08050537109375 5133.0
253.04843139648438 535.0
255.09967041015625 430.0
259.0823974609375 448.0
260.0500793457031 6551.0
261.05584716796875 2711.0
262.0658264160156 8298.0
263.07318115234375 8193.0
264.07794189453125 4942.0
265.0868835449219 73188.0
266.095458984375 5094.0
267.10137939453125 3585.0
268.0770263671875 383.0
269.0889587402344 196.0
272.05523681640625 459.0
273.05609130859375 718.0
274.0634460449219 6997.0
275.0773010253906 5399.0
276.0790710449219 1801.0
277.05224609375 15811.0
278.062255859375 21627.0
279.06707763671875 18644.0
280.0783996582031 21216.0
281.0845031738281 2454.0
282.0924072265625 11395.0
283.10211181640625 1750.0
289.0502624511719 2806.0
290.0627746582031 4108.0
291.0698547363281 16835.0
292.0762939453125 46754.0
293.08209228515625 255976.0
294.0943908691406 11671.0
295.09881591796875 63496.0
296.0711364746094 458.0
297.1176452636719 7473.0
298.08843994140625 376.0
301.0566101074219 197.0
302.0606384277344 9605.0
303.06634521484375 1264.0
304.07861328125 11034.0
305.080322265625 8833.0
306.08612060546875 1388.0
307.0640869140625 5901.0
308.0706787109375 24589.0
309.11102294921875 2068.0
310.09130859375 1335.0
311.0904846191406 2158.0
313.1085510253906 721.0
316.10797119140625 245.0
317.091796875 328.0
318.08465576171875 878.0
319.09912109375 3144.0
320.07000732421875 23735.0
321.0801086425781 1818.0
322.0892639160156 14253.0
323.0949401855469 551577.0
324.09210205078125 348.0
325.1059875488281 3270.0
326.078369140625 250.0
333.10235595703125 921.0
334.10711669921875 797.0
335.0954284667969 47619.0
336.09033203125 3449.0
337.1073303222656 2134.0
338.1361999511719 934.0
341.1051330566406 2721.0
348.1311950683594 2634.0
350.10565185546875 507.0
351.11993408203125 2395.0
353.10546875 4150.0
354.13995361328125 231.0
366.1371765136719 7013.0
382.9641418457031 629.0
384.1487121582031 247952.0

Name: Hydrastine
Precursor_mz: 406.1247613
Cas: 118-08-1
Adduct: [M+Na]+
Mz: 406.1261081
Comment: Major
Smiles: COc1ccc2c(c1OC)C(=O)O[C@@H]2[C@H]1c2cc3c(cc2CCN1C)OCO3
Formula: C21H21NO6
Mix: Alkaloids-pos-mix32
Rt: [2.456]
Rt_apex: 2.454666697
Rt_start: 2.40325
Rt_end: 2.632566667
Ms1_intensity: 60806
N_scnas: 33
Ms1_scan_range: [653, 661, 687]
Reci_snr: 0.007108506
Ms2_scan_idx: 1173
Pmz_offset: 8.48e-05
Entropy: 0.9999999403953552
Num Peaks: 6
42.03309631347656 93.0
91.05178833007812 93.0
175.06553649902344 92.0
190.08607482910156 8350.0
346.07861328125 92.0
406.1227111816406 123.0

Name: yibeissine
Precursor_mz: 444.3123108
Cas: 143502-51-6
Adduct: [M+H]+
Mz: 444.3108353
Comment: Major
Smiles: CC1=C2[C@@H](CC[C@]13O[C@@H]1C[C@H](C)CN[C@H]1[C@H]3C)[C@@H]1CC(=O)[C@H]3C[C@@H](O)CC[C@]3(C)[C@H]1[C@H]2O
Formula: C27H41NO4
Mix: Alkaloids-pos-mix32
Rt: [2.29]
Rt_apex: 2.2893717
Rt_start: 2.22925
Rt_end: 2.36875
Ms1_intensity: 8730279
N_scnas: 20
Ms1_scan_range: [627, 636, 648]
Reci_snr: 1.97e-05
Ms2_scan_idx: 1004
Pmz_offset: 0.002913853
Entropy: 0.9625309705734253
Num Peaks: 171
41.03827667236328 3728.0
42.03313446044922 492.0
43.017818450927734 1507.0
54.034969329833984 197.0
56.05056381225586 382.0
57.06902313232422 1703.0
58.06670379638672 349.0
65.03878021240234 512.0
67.05397033691406 43411.0
70.06330871582031 2841.0
72.04586029052734 329.0
79.05408477783203 4625.0
80.0504150390625 1476.0
81.06941223144531 19178.0
82.06306457519531 1155.0
84.0813980102539 62095.0
85.06481170654297 23950.0
91.05455017089844 6518.0
94.06525421142578 607.0
96.08079528808594 10315.0
97.0640869140625 904.0
98.09685516357422 7416.0
99.0833969116211 1497.0
100.0734634399414 2228.0
102.091064453125 17650.0
103.05042266845703 197.0
107.08514404296875 6529.0
109.10150909423828 156303.0
110.09613037109375 1984.0
112.07662200927734 8973.0
114.09125518798828 231956.0
115.05411529541016 980.0
116.0633544921875 314.0
119.08687591552734 6134.0
121.10150146484375 3797.0
122.0949935913086 306.0
123.08008575439453 989.0
124.1113510131836 4134.0
126.12845611572266 48195.0
127.0552978515625 185.0
129.06898498535156 2133.0
130.08016967773438 271.0
135.116943359375 2576.0
136.11056518554688 164.0
137.06182861328125 356.0
140.10650634765625 7434.0
141.06993103027344 1683.0
142.12030029296875 2945.0
143.08558654785156 5357.0
144.09286499023438 904.0
145.1036834716797 8763.0
148.10952758789062 670.0
149.09832763671875 839.0
151.075439453125 248.0
154.072509765625 319.0
155.0862274169922 6009.0
156.09275817871094 1247.0
157.10252380371094 17230.0
159.1159210205078 10375.0
165.0851287841797 383.0
167.08900451660156 576.0
168.09365844726562 593.0
170.1083526611328 350.0
171.11651611328125 7363.0
172.12030029296875 188.0
173.13255310058594 9343.0
175.1474151611328 1663.0
176.14430236816406 218.0
181.10133361816406 1609.0
183.11822509765625 5881.0
184.12989807128906 390.0
185.13290405273438 2544.0
187.14901733398438 1780.0
189.09304809570312 892.0
191.11309814453125 479.0
192.0940704345703 252.0
194.1104736328125 403.0
196.11973571777344 478.0
197.13316345214844 12820.0
199.14805603027344 2440.0
200.1573486328125 471.0
201.12940979003906 2088.0
205.12152099609375 238.0
207.1161346435547 1352.0
208.12718200683594 231.0
209.13258361816406 2720.0
210.13429260253906 387.0
211.14451599121094 5535.0
213.1660919189453 7972.0
219.13897705078125 476.0
220.12686157226562 451.0
221.1336669921875 953.0
223.1499786376953 1615.0
229.12210083007812 587.0
233.1351776123047 499.0
234.14120483398438 351.0
235.14939880371094 743.0
236.16192626953125 193.0
237.1658172607422 1217.0
239.1799774169922 2496.0
245.14170837402344 276.0
246.14247131347656 295.0
247.1342315673828 641.0
249.1680450439453 1943.0
251.1812744140625 1259.0
253.19590759277344 2860.0
255.17823791503906 675.0
257.1548156738281 457.0
259.15478515625 284.0
263.18487548828125 536.0
265.1966857910156 1041.0
267.17950439453125 3882.0
269.1996154785156 486.0
271.15106201171875 175.0
273.15594482421875 253.0
277.19488525390625 583.0
279.1703796386719 400.0
281.1952209472656 719.0
283.20849609375 555.0
287.1876220703125 214.0
289.1911926269531 313.0
291.17535400390625 408.0
293.1903381347656 2717.0
295.2122802734375 1092.0
297.18792724609375 188.0
301.1809387207031 769.0
303.19842529296875 977.0
305.1858825683594 214.0
307.1994934082031 254.0
309.195068359375 265.0
311.2044982910156 2373.0
313.1856994628906 1538.0
315.218017578125 256.0
317.1919250488281 453.0
319.1895446777344 4062.0
321.1883850097656 240.0
325.21746826171875 244.0
327.197021484375 2668.0
329.2156677246094 5649.0
331.2277526855469 1249.0
333.222900390625 341.0
335.2034912109375 840.0
339.20294189453125 1170.0
341.2193603515625 867.0
343.2313537597656 749.0
349.2188415527344 345.0
351.2358093261719 327.0
353.2164001464844 23679.0
354.2220153808594 1429.0
355.2290344238281 404.0
365.24908447265625 263.0
367.2203369140625 5082.0
369.2427062988281 1096.0
370.2465515136719 291.0
371.2274169921875 186.0
379.2712707519531 482.0
383.2664794921875 425.0
408.295166015625 350.0
409.2768859863281 30691.0
411.2808837890625 393.0
415.2749328613281 275.0
426.3059387207031 39014.0
427.28875732421875 2071.0
442.9375 4344.0
444.31488037109375 1145796.0
445.54925537109375 2678.0
445.9018249511719 815.0
446.0174255371094 324.0
446.12115478515625 225.0
446.3464660644531 213.0
446.45318603515625 174.0

Name: yibeissine
Precursor_mz: 444.3101545
Cas: 143502-51-6
Adduct: [M+H]+
Mz: 444.3108353
Comment: isomer
Smiles: CC1=C2[C@@H](CC[C@]13O[C@@H]1C[C@H](C)CN[C@H]1[C@H]3C)[C@@H]1CC(=O)[C@H]3C[C@@H](O)CC[C@]3(C)[C@H]1[C@H]2O
Formula: C27H41NO4
Mix: Alkaloids-pos-mix32
Rt: [2.29]
Rt_apex: 2.484611135
Rt_start: 2.437733333
Rt_end: 3.475666667
Ms1_intensity: 88852
N_scnas: 149
Ms1_scan_range: [658, 665, 808]
Reci_snr: 0.003817109
Ms2_scan_idx: 1164
Pmz_offset: 0.000757551
Entropy: 1.0
Num Peaks: 17
67.05387878417969 470.0
81.06930541992188 322.0
84.08129119873047 1032.0
85.06340789794922 405.0
93.0674057006836 267.0
96.07654571533203 197.0
102.08809661865234 405.0
109.09990692138672 1436.0
112.0705337524414 443.0
114.08960723876953 2143.0
126.12828826904297 443.0
140.1046600341797 177.0
145.10350036621094 178.0
157.10057067871094 252.0
183.11798095703125 224.0
197.13290405273438 208.0
444.31134033203125 16429.0

Name: Indaconitine
Precursor_mz: 630.3299661
Cas: 4491-19-4
Adduct: [M+H]+
Mz: 630.3272732
Comment: Major
Smiles: CCN1C[C@@]2(COC)[C@H]3[C@@H](OC)[C@H]4C1[C@]3([C@@H](OC)C[C@H]2O)[C@@H]1C[C@]2(O)[C@@H](OC)C[C@@]4(OC(C)=O)[C@H]1[C@H]2OC(=O)c1ccccc1
Formula: C34H47NO10
Mix: Alkaloids-pos-mix32
Rt: [3.563]
Rt_apex: 3.559735801
Rt_start: 3.511666667
Rt_end: 3.951583333
Ms1_intensity: 24992108
N_scnas: 64
Ms1_scan_range: [813, 820, 878]
Reci_snr: 4.16e-05
Ms2_scan_idx: 1958
Pmz_offset: 0.003670186
Entropy: 0.9126994013786316
Num Peaks: 424
44.051109313964844 326.0
45.03358459472656 1351.0
47.050289154052734 248.0
51.02357482910156 233.0
55.01728439331055 411.0
56.04841232299805 591.0
58.065582275390625 5157.0
59.052486419677734 166.0
71.04988098144531 1058.0
72.0803451538086 1852.0
75.04474639892578 5551.0
77.0381851196289 4149.0
79.05276489257812 653.0
81.06681060791016 440.0
82.06680297851562 210.0
84.08003234863281 380.0
85.02720642089844 970.0
86.05906677246094 212.0
88.07429504394531 915.0
89.06085205078125 262.0
91.0558090209961 1687.0
93.06880187988281 434.0
94.0665283203125 239.0
95.05043029785156 436.0
96.0807113647461 352.0
97.06399536132812 356.0
98.09676361083984 217.0
99.04000091552734 309.0
100.07758331298828 232.0
101.05990600585938 808.0
102.09239196777344 668.0
103.05033111572266 378.0
105.03427124023438 99136.0
108.0806655883789 1626.0
109.06476593017578 1711.0
110.09750366210938 582.0
111.07888793945312 5795.0
112.07503509521484 316.0
114.0926513671875 413.0
115.0555191040039 1309.0
117.06929779052734 1697.0
118.06748962402344 223.0
119.04695129394531 659.0
121.06587219238281 2847.0
122.09798431396484 707.0
123.07685852050781 1062.0
124.07527923583984 181.0
125.05575561523438 211.0
126.09366607666016 188.0
127.05201721191406 260.0
128.05845642089844 660.0
129.06887817382812 2615.0
131.08554077148438 1198.0
132.08843994140625 484.0
133.06764221191406 816.0
134.09596252441406 964.0
135.08094787597656 1485.0
136.07769775390625 388.0
137.06170654296875 647.0
138.0921173095703 961.0
139.07177734375 231.0
140.10804748535156 2176.0
141.0864715576172 2590.0
143.08377075195312 809.0
144.08599853515625 228.0
145.0663604736328 1147.0
146.09585571289062 656.0
147.08302307128906 1341.0
148.11280822753906 546.0
149.0553436279297 1884.0
150.0919952392578 355.0
151.07357788085938 1151.0
152.10508728027344 2611.0
153.07586669921875 836.0
154.12289428710938 270.0
155.0825958251953 1376.0
156.07858276367188 202.0
157.0689697265625 822.0
158.09600830078125 850.0
159.07859802246094 1774.0
160.1175079345703 671.0
161.09922790527344 918.0
162.0928955078125 1527.0
163.07168579101562 595.0
164.10374450683594 331.0
165.07595825195312 1673.0
166.0781707763672 383.0
167.09066772460938 1080.0
169.0719757080078 358.0
171.08148193359375 1081.0
172.11093139648438 1226.0
173.09732055664062 1022.0
174.09022521972656 1784.0
175.0785369873047 799.0
176.1050262451172 813.0
177.09716796875 586.0
178.11831665039062 756.0
179.0860595703125 2078.0
180.08656311035156 240.0
181.08795166015625 1375.0
182.0959014892578 734.0
183.0857696533203 757.0
184.11068725585938 4448.0
185.10791015625 1812.0
186.12889099121094 3038.0
187.073974609375 522.0
188.1061248779297 744.0
189.08323669433594 523.0
190.1189727783203 1646.0
191.095458984375 1740.0
192.09194946289062 617.0
193.1007843017578 1989.0
194.10638427734375 401.0
195.07933044433594 692.0
196.1038360595703 549.0
197.09751892089844 1135.0
198.1332244873047 585.0
199.1062774658203 459.0
200.1075439453125 558.0
201.09339904785156 710.0
202.07568359375 1007.0
203.0863800048828 1915.0
204.09957885742188 2276.0
205.1012420654297 2988.0
206.11138916015625 701.0
207.1179656982422 1443.0
208.10675048828125 474.0
209.09788513183594 1630.0
210.12596130371094 611.0
211.11985778808594 827.0
212.10382080078125 854.0
213.09828186035156 635.0
214.1197052001953 538.0
215.129150390625 1170.0
216.1409912109375 2219.0
217.10142517089844 4860.0
218.15518188476562 760.0
219.1117706298828 2968.0
220.0891876220703 592.0
221.09799194335938 2121.0
222.11538696289062 597.0
223.11624145507812 1884.0
224.12144470214844 551.0
225.12890625 432.0
226.1217498779297 488.0
227.1167755126953 503.0
228.13731384277344 353.0
229.10488891601562 1285.0
230.10006713867188 332.0
231.12086486816406 1107.0
232.09475708007812 697.0
233.10496520996094 1565.0
234.1066436767578 1114.0
235.11476135253906 4845.0
236.13583374023438 465.0
237.13101196289062 1630.0
238.12612915039062 446.0
239.1168212890625 637.0
240.1465301513672 557.0
241.12615966796875 854.0
242.12086486816406 277.0
243.10670471191406 257.0
244.1383819580078 271.0
245.0975341796875 2784.0
246.1026153564453 610.0
247.11415100097656 4216.0
248.1432342529297 819.0
249.125732421875 4837.0
250.15455627441406 633.0
251.12100219726562 1164.0
252.14279174804688 401.0
253.1309356689453 1199.0
254.15008544921875 689.0
255.13766479492188 465.0
256.1383972167969 254.0
257.11181640625 397.0
258.1231689453125 419.0
259.12066650390625 1042.0
260.14276123046875 1069.0
261.1282958984375 1458.0
262.1088562011719 476.0
263.1094970703125 1420.0
264.132568359375 661.0
265.12103271484375 1470.0
266.152587890625 780.0
267.1379699707031 2135.0
268.1688232421875 191.0
269.1141662597656 273.0
270.1580505371094 286.0
271.13232421875 374.0
272.1546630859375 355.0
273.15106201171875 334.0
274.1585998535156 1440.0
275.1097717285156 423.0
276.1488952636719 730.0
277.12689208984375 4656.0
278.1581115722656 1021.0
279.1372985839844 2231.0
280.1651916503906 413.0
281.16436767578125 1867.0
282.1559143066406 325.0
283.13031005859375 486.0
284.1513366699219 667.0
285.1504821777344 279.0
287.1279296875 214.0
288.1513366699219 314.0
289.1264953613281 798.0
290.1510925292969 917.0
291.13916015625 1069.0
292.1673278808594 1156.0
293.1660461425781 380.0
294.14239501953125 364.0
295.1445007324219 1886.0
296.1651916503906 797.0
297.1513671875 452.0
298.175537109375 275.0
299.1601867675781 539.0
302.1580810546875 2517.0
303.1566162109375 181.0
304.1714782714844 650.0
305.1414794921875 240.0
306.1891174316406 985.0
307.1401672363281 687.0
308.1690979003906 1373.0
309.1553039550781 4286.0
310.1826171875 471.0
311.17449951171875 620.0
312.1903076171875 180.0
313.1804504394531 394.0
316.1752014160156 596.0
318.15460205078125 249.0
319.1566467285156 478.0
320.1678161621094 1069.0
321.16796875 402.0
322.1797790527344 970.0
323.16796875 594.0
324.195556640625 729.0
326.1517028808594 1478.0
327.15863037109375 603.0
328.1798400878906 326.0
334.1839294433594 6287.0
336.1982421875 539.0
338.2134704589844 847.0
339.1561279296875 541.0
340.2113952636719 675.0
341.1775817871094 2531.0
342.21002197265625 261.0
346.20654296875 252.0
348.2095947265625 558.0
350.18426513671875 192.0
351.1907958984375 243.0
352.1961364746094 2298.0
353.1659851074219 165.0
354.2084655761719 480.0
358.194580078125 237.0
366.21490478515625 4308.0
367.2119140625 216.0
368.20489501953125 276.0
369.1641845703125 367.0
370.21112060546875 320.0
371.1675720214844 219.0
372.2254638671875 370.0
381.15081787109375 189.0
382.1816711425781 241.0
383.20294189453125 234.0
384.2228088378906 2708.0
386.2279968261719 336.0
398.2398681640625 3139.0
399.16455078125 838.0
400.2110595703125 208.0
401.1773986816406 405.0
402.2293395996094 274.0
403.2121887207031 175.0
404.1934509277344 240.0
406.19061279296875 197.0
411.1666564941406 239.0
412.19171142578125 1257.0
413.18096923828125 212.0
414.2228088378906 386.0
416.2474365234375 789.0
418.20526123046875 1376.0
420.2223205566406 226.0
424.1929931640625 1793.0
426.2186279296875 213.0
428.2055358886719 323.0
430.21453857421875 733.0
431.193115234375 2012.0
432.2282409667969 406.0
436.21405029296875 245.0
438.2240905761719 173.0
442.2078552246094 1236.0
443.20294189453125 354.0
444.2227783203125 1915.0
445.2142028808594 761.0
446.2274475097656 869.0
448.21881103515625 1055.0
449.19384765625 734.0
450.2384338378906 732.0
456.2315979003906 9941.0
458.2421569824219 1109.0
460.2209777832031 765.0
461.2089538574219 181.0
462.2342224121094 4358.0
463.2183532714844 6565.0
464.25189208984375 2996.0
473.2361145019531 335.0
474.2348937988281 10902.0
475.2255859375 194.0
476.2479248046875 1885.0
478.25909423828125 989.0
480.2498779296875 1250.0
486.2253723144531 194.0
488.2512512207031 36354.0
490.2502746582031 662.0
491.21710205078125 321.0
492.23779296875 648.0
494.26055908203125 22890.0
495.24383544921875 1840.0
504.2380065917969 176.0
506.2568359375 94713.0
508.2891845703125 329.0
516.2520141601562 191.0
520.2774047851562 321155.0
522.2671508789062 363.0
524.2574462890625 764.0
525.2700805664062 701.0
534.2689208984375 243.0
536.2754516601562 269.0
538.282470703125 423310.0
540.0192260742188 208.0
548.2686157226562 1000.0
552.30126953125 49945.0
554.2686767578125 256.0
556.3024291992188 449.0
566.2799072265625 2010.0
568.3021240234375 344.0
570.3145141601562 801553.0
572.1089477539062 628.0
572.260009765625 236.0
580.2980346679688 30004.0
598.3087768554688 17269.0
612.3264770507812 3709.0
629.3514404296875 306.0
629.6224975585938 252.0
629.8056640625 338.0
629.9077758789062 173.0
630.3305053710938 909753.0
631.814697265625 8687.0
632.2203979492188 948.0
632.3651123046875 511.0
632.5203857421875 295.0
632.6262817382812 172.0
632.763916015625 461.0
632.9051513671875 282.0
633.0357666015625 222.0
633.1629028320312 207.0
633.4383544921875 309.0
633.554931640625 310.0
633.6962280273438 273.0
633.8234252929688 259.0
633.961181640625 278.0
634.0848999023438 295.0
634.2333374023438 285.0
634.3676147460938 471.0
634.4842529296875 188.0
634.6468505859375 301.0
634.76708984375 254.0
634.8837890625 222.0
635.26220703125 333.0
635.5982666015625 209.0
635.7432861328125 258.0
635.8848266601562 269.0
636.1715087890625 234.0
636.3272705078125 167.0
636.564453125 199.0
636.90087890625 330.0
637.060302734375 174.0
637.2161254882812 174.0
637.3330688476562 205.0
637.6873779296875 229.0
637.985107421875 177.0
638.2013549804688 271.0
638.3715209960938 198.0
638.6162109375 180.0
638.9779663085938 209.0
639.1837158203125 180.0
639.3363037109375 182.0
639.5350341796875 172.0
639.7941284179688 183.0
639.9325561523438 156.0
640.234375 192.0
640.3870849609375 168.0
640.7564697265625 168.0
640.9766845703125 183.0
641.477783203125 201.0
641.6981811523438 163.0
641.89013671875 161.0
642.1070556640625 160.0
642.8184814453125 182.0
642.9999389648438 186.0
643.2526245117188 208.0
643.4092407226562 122.0
644.2032470703125 159.0
644.32080078125 188.0
644.627197265625 190.0
645.1653442382812 122.0
645.9390869140625 177.0
646.1317138671875 163.0
646.634765625 217.0
646.9952392578125 170.0
647.1451416015625 161.0
647.8057861328125 155.0
647.9379272460938 161.0
648.663330078125 157.0
649.6966552734375 164.0
650.2011108398438 156.0
650.7702026367188 122.0
651.68701171875 198.0
652.1886596679688 156.0
653.8239135742188 158.0
658.2342529296875 210.0
660.0645141601562 155.0
661.435302734375 158.0
670.405517578125 61.0

Name: Vindesine sulfate
Precursor_mz: 754.4201111
Cas: 59917-39-4
Adduct: [M+H]+
Mz: 754.4174256
Comment: Major
Smiles: CC[C@]1(O)C[C@H]2CN(CCc3c([nH]c4ccccc34)[C@@](C(=O)OC)(c3cc4c(cc3OC)N(C)[C@H]3[C@@](O)(C(N)=O)[C@H](O)[C@]5(CC)C=CCN6CC[C@]43[C@@H]65)C2)C1
Formula: C43H55N5O7
Mix: Alkaloids-pos-mix32
Rt: [2.595]
Rt_apex: 2.592638117
Rt_start: 2.5509
Rt_end: 2.93905
Ms1_intensity: 464514
N_scnas: 55
Ms1_scan_range: [675, 681, 731]
Reci_snr: 0.002556115
Ms2_scan_idx: 1279
Pmz_offset: 0.00386881
Entropy: 0.9913389086723328
Num Peaks: 45
122.09666442871094 360.0
124.1114730834961 1545.0
140.10997009277344 413.0
144.07952880859375 691.0
154.1197052001953 416.0
209.1246795654297 244.0
225.13356018066406 336.0
228.10595703125 448.0
252.1254425048828 182.0
254.12596130371094 197.0
265.1626892089844 352.0
283.16864013671875 327.0
295.1788330078125 1408.0
305.16412353515625 592.0
323.1786804199219 2238.0
337.1902770996094 3239.0
353.1903991699219 715.0
355.20556640625 15163.0
381.22552490234375 188.0
400.2370910644531 430.0
412.2266845703125 3101.0
442.2825012207031 224.0
470.2225646972656 326.0
484.24786376953125 240.0
522.2713623046875 540.0
524.2969970703125 390.0
540.30078125 178.0
542.30224609375 696.0
593.3224487304688 369.0
605.3261108398438 238.0
611.3487548828125 259.0
623.33984375 442.0
633.39013671875 234.0
649.3652954101562 440.0
651.3873291015625 1103.0
676.3754272460938 344.0
691.3851928710938 591.0
694.4069213867188 883.0
701.3729248046875 187.0
704.3717041015625 183.0
709.4012451171875 3543.0
719.38232421875 358.0
722.3928833007812 195.0
736.4122924804688 3201.0
754.4237670898438 142752.0

Name: Vindesine sulfate
Precursor_mz: 776.3990647
Cas: 59917-39-4
Adduct: [M+Na]+
Mz: 776.3993698
Comment: Major
Smiles: CC[C@]1(O)C[C@H]2CN(CCc3c([nH]c4ccccc34)[C@@](C(=O)OC)(c3cc4c(cc3OC)N(C)[C@H]3[C@@](O)(C(N)=O)[C@H](O)[C@]5(CC)C=CCN6CC[C@]43[C@@H]65)C2)C1
Formula: C43H55N5O7
Mix: Alkaloids-pos-mix32
Rt: [2.595]
Rt_apex: 2.594241311
Rt_start: 2.557733333
Rt_end: 2.73555
Ms1_intensity: 14716
N_scnas: 25
Ms1_scan_range: [676, 681, 702]
Reci_snr: 0.008739377
Ms2_scan_idx: 1256
Pmz_offset: 0.001497509
Entropy: 1.0
Num Peaks: 2
744.3776245117188 123.0
776.4176635742188 4824.0

Name: Vomicine
Precursor_mz: 381.1807981
Cas: 125-15-5
Adduct: [M+H]+
Mz: 381.1808837
Comment: Major
Smiles: CN1CC[C@]23C(=O)C[C@H]4C(=CCO[C@H]5CC(=O)N(c6c(O)cccc62)[C@H]3[C@H]54)C1
Formula: C22H24N2O4
Mix: Alkaloids-pos-mix33
Rt: [3.788]
Rt_apex: 3.19648498
Rt_start: 3.124566667
Rt_end: 3.271116667
Ms1_intensity: 24626
N_scnas: 22
Ms1_scan_range: [818, 828, 841]
Reci_snr: 0.007455185
Ms2_scan_idx: 1550
Pmz_offset: 0.000627048
Entropy: 1.0
Num Peaks: 11
91.0530014038086 243.0
182.08432006835938 429.0
183.0874481201172 368.0
235.08651733398438 220.0
263.1183166503906 408.0
265.1390380859375 199.0
277.0915222167969 223.0
333.1248779296875 221.0
349.1630859375 446.0
363.1754150390625 626.0
381.1805725097656 2119.0

Name: Coniine hydrochloride
Precursor_mz: 128.1422753
Cas: 15991-59-0
Adduct: [M+H]+
Mz: 128.143376
Comment: Major
Smiles: CCCC1CCCCN1
Formula: C8H17N
Mix: Alkaloids-pos-mix33
Rt: [1.6]
Rt_apex: 1.596894721
Rt_start: 1.564683333
Rt_end: 1.6952
Ms1_intensity: 74014
N_scnas: 33
Ms1_scan_range: [541, 550, 575]
Reci_snr: 0.002822774
Ms2_scan_idx: 619
Pmz_offset: 3.8e-05
Entropy: 0.9646964073181152
Num Peaks: 11
41.039039611816406 2265.0
43.05818557739258 31.0
53.04084396362305 123.0
55.05672073364258 1925.0
57.07308578491211 62.0
67.05376434326172 123.0
69.07169342041016 879.0
72.08138275146484 26.0
83.08683013916016 62.0
111.11860656738281 31.0
128.14398193359375 545.0

Name: Nigakinone
Precursor_mz: 267.0755744
Cas: 18110-86-6
Adduct: [M+H]+
Mz: 267.0764186
Comment: Major
Smiles: COc1c(O)c(=O)n2c3ccccc3c3ccnc1c32
Formula: C15H10N2O3
Mix: Alkaloids-pos-mix33
Rt: [3.08]
Rt_apex: 3.080990438
Rt_start: 3.03075
Rt_end: 3.37755
Ms1_intensity: 2967710
N_scnas: 53
Ms1_scan_range: [804, 811, 858]
Reci_snr: 0.000376509
Ms2_scan_idx: 1453
Pmz_offset: 0.000353406
Entropy: 0.9576012492179871
Num Peaks: 43
87.02106475830078 283.0
88.02937316894531 1289.0
89.03421783447266 1368.0
90.04342651367188 1841.0
101.03716278076172 420.0
113.03813934326172 3234.0
114.04600524902344 23167.0
115.05532836914062 2441.0
116.05701446533203 288.0
117.05696105957031 16608.0
128.04873657226562 7087.0
129.0702667236328 391.0
139.04342651367188 310.0
140.04969787597656 34475.0
141.05792236328125 54767.0
142.05471801757812 6967.0
153.0426483154297 277.0
154.06167602539062 458.0
155.06138610839844 661.0
166.0580291748047 1089.0
167.0614013671875 18573.0
168.0732421875 1035294.0
169.0425262451172 911.0
179.05763244628906 258.0
181.074462890625 675.0
182.0842742919922 961.0
183.05702209472656 12010.0
192.0722198486328 572.0
193.07904052734375 2942.0
195.0947265625 282.0
207.0570831298828 181.0
211.08895874023438 1434.0
221.070556640625 1069.0
223.0970458984375 308.0
224.0623016357422 2683.0
225.06964111328125 871.0
239.08392333984375 2613.0
249.0722198486328 191.0
251.05616760253906 182.0
266.2529602050781 615.0
267.0779724121094 255161.0
268.0903015136719 175.0
268.30865478515625 176.0

Name: N-Benzyllinoleamide
Precursor_mz: 370.3093133
Cas: 18286-71-0
Adduct: [M+H]+
Mz: 370.3104413
Comment: Major
Smiles: CCCCC/C=C\C/C=C\CCCCCCCC(=O)NCc1ccccc1
Formula: C25H39NO
Mix: Alkaloids-pos-mix33
Rt: [5.766, 6.949]
Rt_apex: 6.945242078
Rt_start: 6.9096
Rt_end: 7.016966667
Ms1_intensity: 39781
N_scnas: 21
Ms1_scan_range: [1500, 1507, 1522]
Reci_snr: 0.011348989
Ms2_scan_idx: 3409
Pmz_offset: 0.00067498
Entropy: 1.0
Num Peaks: 2
91.05428314208984 3032.0
95.08854675292969 77.0

Name: N-Benzyllinoleamide
Precursor_mz: 392.2905447
Cas: 18286-71-0
Adduct: [M+Na]+
Mz: 392.2923856
Comment: Major
Smiles: CCCCC/C=C\C/C=C\CCCCCCCC(=O)NCc1ccccc1
Formula: C25H39NO
Mix: Alkaloids-pos-mix33
Rt: [5.766, 6.949]
Rt_apex: 6.948811974
Rt_start: 6.923516667
Rt_end: 6.982216667
Ms1_intensity: 1327
N_scnas: 11
Ms1_scan_range: [1503, 1508, 1515]
Reci_snr: 0.012224895
Ms2_scan_idx: 3412
Pmz_offset: 0.005400647
Entropy: 0.6711879968643188
Num Peaks: 3
72.08734130859375 26.0
149.02423095703125 93.0
290.1147155761719 26.0

Name: Robustine
Precursor_mz: 216.0648852
Cas: 2255-50-7
Adduct: [M+H]+
Mz: 216.0655196
Comment: Major
Smiles: COc1c2ccoc2nc2c(O)cccc12
Formula: C12H9NO3
Mix: Alkaloids-pos-mix33
Rt: [3.744]
Rt_apex: 3.7396927
Rt_start: 3.666366667
Rt_end: 4.5743
Ms1_intensity: 3894946
N_scnas: 141
Ms1_scan_range: [901, 912, 1043]
Reci_snr: 0.000123221
Ms2_scan_idx: 1969
Pmz_offset: 0.000666182
Entropy: 0.9778008460998535
Num Peaks: 80
43.01863479614258 447.0
50.016082763671875 463.0
51.02250289916992 599.0
52.01769256591797 1074.0
53.038848876953125 264.0
63.02301025390625 815.0
64.03191375732422 951.0
65.0397720336914 5027.0
66.04637908935547 237.0
67.01590728759766 181.0
74.01607513427734 726.0
75.02277374267578 744.0
76.03015899658203 533.0
77.03809356689453 1677.0
78.03407287597656 1632.0
79.04144287109375 301.0
80.04899597167969 602.0
89.03956604003906 58790.0
90.04747772216797 64411.0
91.04232025146484 2772.0
92.02511596679688 3040.0
93.03350067138672 6810.0
94.04057312011719 421.0
99.02174377441406 176.0
100.03115844726562 6003.0
101.02593994140625 363.0
102.04974365234375 464.0
103.05307006835938 819.0
104.05127716064453 283.0
106.03033447265625 2488.0
107.03701782226562 1611.0
108.0484619140625 619.0
113.0396957397461 1625.0
115.0553970336914 5828.0
116.04952239990234 23051.0
117.0570297241211 269981.0
118.03839874267578 1038.0
119.0361099243164 3021.0
120.04571533203125 831.0
121.05030822753906 199.0
127.04398345947266 26003.0
128.05039978027344 392.0
130.06552124023438 1090.0
131.04684448242188 396.0
132.0802459716797 820.0
133.05618286132812 175.0
134.06170654296875 212.0
135.03025817871094 873.0
136.04156494140625 1803.0
140.04811096191406 1573.0
141.05467224121094 815.0
142.0631561279297 1885.0
143.05006408691406 424.0
144.04544067382812 277973.0
145.0543975830078 557442.0
146.0244903564453 750.0
148.0392303466797 201.0
152.04957580566406 316.0
155.0335235595703 3865.0
156.046875 222.0
157.05474853515625 600.0
158.05880737304688 322.0
159.06607055664062 226.0
160.07652282714844 4630.0
161.01004028320312 268.0
162.01950073242188 628.0
170.06045532226562 3623.0
172.04266357421875 10523.0
173.04916381835938 11175.0
176.03411865234375 433.0
183.03244018554688 2501.0
185.04473876953125 289.0
186.05789184570312 332.0
188.07516479492188 2267.0
198.0579833984375 1242.0
201.04745483398438 664439.0
215.40281677246094 927.0
216.068603515625 256701.0
216.98959350585938 200.0
217.1694793701172 172.0

Name: Robustine
Precursor_mz: 238.0455108
Cas: 2255-50-7
Adduct: [M+Na]+
Mz: 238.0474639
Comment: Major
Smiles: COc1c2ccoc2nc2c(O)cccc12
Formula: C12H9NO3
Mix: Alkaloids-pos-mix33
Rt: [3.744]
Rt_apex: 3.738949188
Rt_start: 3.7002
Rt_end: 3.791683333
Ms1_intensity: 14775
N_scnas: 13
Ms1_scan_range: [906, 912, 920]
Reci_snr: 0.105645906
Ms2_scan_idx: 1971
Pmz_offset: 0.001345303
Entropy: 1.0
Num Peaks: 8
89.0422134399414 93.0
90.03948974609375 154.0
91.04901123046875 62.0
117.05854797363281 62.0
118.05669403076172 123.0
145.04933166503906 154.0
146.0583953857422 93.0
202.04161071777344 62.0

Name: Hirsuteine
Precursor_mz: 367.2018244
Cas: 35467-43-7
Adduct: [M+H]+
Mz: 367.2016192
Comment: Major
Smiles: C=C[C@H]1CN2CCc3c([nH]c4ccccc34)[C@H]2C[C@@H]1/C(=C\OC)C(=O)OC
Formula: C22H26N2O3
Mix: Alkaloids-pos-mix33
Rt: [3.37]
Rt_apex: 3.371130129
Rt_start: 3.304716667
Rt_end: 3.666366667
Ms1_intensity: 14548164
N_scnas: 53
Ms1_scan_range: [847, 857, 901]
Reci_snr: 8.43e-06
Ms2_scan_idx: 1661
Pmz_offset: 0.001016821
Entropy: 0.9749593734741211
Num Peaks: 267
41.03822326660156 1116.0
42.033992767333984 25888.0
43.016845703125 431.0
44.048301696777344 8225.0
45.03168869018555 1215.0
47.04931640625 2896.0
51.023563385009766 249.0
53.03788757324219 2101.0
55.054752349853516 1238.0
56.04945373535156 23979.0
58.06450271606445 194.0
59.01042556762695 463.0
65.03758239746094 1396.0
66.04417419433594 238.0
67.04241180419922 1408.0
68.04928588867188 12565.0
69.0333480834961 785.0
70.06441497802734 1492.0
71.04987335205078 510.0
73.06543731689453 93.0
75.04352569580078 36311.0
77.0381851196289 5694.0
78.04656219482422 675.0
79.05400848388672 5192.0
80.04908752441406 7251.0
81.0693359375 878.0
82.0655288696289 23592.0
83.04862976074219 317.0
84.07875061035156 1210.0
85.02720642089844 2134.0
86.05646514892578 208.0
89.03701782226562 1845.0
90.04358673095703 760.0
91.05447387695312 23689.0
92.0508041381836 529.0
93.06880187988281 2609.0
94.06517791748047 3662.0
95.04906463623047 25354.0
96.07933807373047 3567.0
97.0626220703125 694.0
99.04280090332031 762.0
101.0345230102539 402.0
102.04277038574219 405.0
103.05318450927734 6326.0
104.05426025390625 727.0
105.06880187988281 3796.0
106.06513977050781 7663.0
107.04875946044922 1272.0
108.08067321777344 45283.0
109.06478118896484 29576.0
110.06217956542969 484.0
111.04341125488281 1534.0
112.07801818847656 231.0
113.05773162841797 224.0
115.05402374267578 18123.0
116.05872344970703 1701.0
117.0693130493164 30881.0
118.064453125 22316.0
119.05155944824219 2844.0
120.08121490478516 12780.0
121.06434631347656 22513.0
122.09954833984375 1417.0
123.0426254272461 6246.0
124.07685852050781 562.0
125.05734252929688 860.0
126.09210968017578 23137.0
127.05361938476562 13173.0
128.06166076660156 10541.0
129.059326171875 16052.0
130.065673828125 45283.0
131.07591247558594 3367.0
132.0787811279297 9744.0
133.06605529785156 1554.0
134.05699157714844 1228.0
135.07606506347656 1608.0
136.07444763183594 2439.0
137.05844116210938 10513.0
138.0558624267578 3787.0
139.07510375976562 448.0
140.0515899658203 500.0
141.06982421875 887.0
142.06666564941406 8941.0
143.07540893554688 46507.0
144.08096313476562 1159654.0
145.0579376220703 944.0
146.0602569580078 8381.0
147.0762481689453 2385.0
148.07867431640625 2637.0
149.06051635742188 20396.0
150.09030151367188 4519.0
151.07705688476562 3335.0
152.0705108642578 2717.0
153.07415771484375 2624.0
154.0654296875 13069.0
155.0721435546875 32923.0
156.0803680419922 49570.0
157.08482360839844 3883.0
158.09603881835938 49439.0
159.08572387695312 1231.0
160.0767059326172 4038.0
161.06008911132812 1375.0
162.08935546875 2701.0
163.07530212402344 6047.0
164.07142639160156 4735.0
165.06698608398438 621.0
166.08544921875 4867.0
167.0743865966797 19612.0
168.080810546875 34881.0
169.08660888671875 23455.0
170.0972442626953 290302.0
171.0906982421875 6662.0
172.11097717285156 11390.0
173.08628845214844 222.0
174.0921173095703 4883.0
175.07485961914062 4133.0
176.10507202148438 3543.0
177.08787536621094 731.0
178.08653259277344 20702.0
179.08047485351562 826.0
180.08660888671875 16794.0
181.08799743652344 19123.0
182.09783935546875 58409.0
183.09341430664062 2168.0
184.10311889648438 3855.0
185.10986328125 1204.0
186.1270294189453 918.0
187.0701904296875 408.0
188.104248046875 529.0
189.07748413085938 555.0
190.08419799804688 4278.0
191.07611083984375 4061.0
192.1017303466797 25053.0
193.08912658691406 5035.0
194.09666442871094 12477.0
195.09703063964844 2360.0
196.1117401123047 10300.0
197.10939025878906 11989.0
198.09376525878906 976.0
199.12416076660156 58021.0
200.1075897216797 372.0
202.08770751953125 407.0
203.07643127441406 291.0
204.09963989257812 13241.0
205.0892333984375 4706.0
206.09735107421875 18545.0
207.10389709472656 4723.0
208.11288452148438 13285.0
209.11215209960938 2297.0
210.1138153076172 40850.0
211.1219482421875 713.0
212.12841796875 551.0
214.0910186767578 464.0
215.0880584716797 487.0
216.0894775390625 992.0
217.08908081054688 7232.0
218.0992889404297 6722.0
219.10353088378906 2553.0
220.11007690429688 4916.0
221.11058044433594 3446.0
222.1133575439453 19357.0
223.12049865722656 5321.0
224.12782287597656 139427.0
225.1374053955078 7250.0
226.0880584716797 18263.0
227.08724975585938 188.0
228.082275390625 558.0
229.08584594726562 383.0
230.09588623046875 3603.0
231.1038818359375 5270.0
232.10765075683594 7325.0
233.10504150390625 1789.0
234.0938262939453 6977.0
235.119140625 879.0
236.1272735595703 51818.0
237.13540649414062 510.0
238.12403869628906 17746.0
239.09519958496094 452.0
240.10311889648438 12531.0
241.09353637695312 784.0
242.10348510742188 1071.0
243.10678100585938 2262.0
244.1143341064453 2914.0
245.1151885986328 1190.0
246.1291046142578 7592.0
247.12525939941406 2916.0
248.1145782470703 1869.0
249.13909912109375 17423.0
250.09027099609375 910.0
251.15443420410156 20810.0
252.1005401611328 5191.0
253.10421752929688 511.0
254.1188507080078 5515.0
256.11151123046875 1366.0
257.11865234375 669.0
258.12322998046875 4530.0
259.1230163574219 1519.0
260.11114501953125 4819.0
261.13970947265625 750.0
262.1225891113281 1184.0
263.1186828613281 560.0
264.12353515625 1267.0
265.1051330566406 1024.0
266.11834716796875 15255.0
267.1128234863281 212.0
268.1275329589844 472.0
270.1120300292969 965.0
271.0977478027344 340.0
272.10614013671875 1268.0
273.1117248535156 566.0
274.12384033203125 7627.0
275.15643310546875 3907.0
276.1396484375 1078.0
277.11297607421875 728.0
278.118408203125 1983.0
279.11395263671875 644.0
280.134765625 1081.0
281.13153076171875 1045.0
283.1280517578125 229.0
284.1348876953125 3300.0
285.13873291015625 776.0
286.1277770996094 1439.0
287.1137390136719 387.0
288.1300048828125 1222.0
289.13134765625 309.0
290.15118408203125 918.0
291.14166259765625 814.0
292.13385009765625 5136.0
293.1517333984375 274.0
294.1521301269531 2075.0
296.121826171875 464.0
298.1465759277344 64017.0
301.1369323730469 333.0
303.1518249511719 8796.0
304.1348876953125 924.0
305.1661071777344 898.0
306.15240478515625 9471.0
307.1820983886719 1422.0
308.1371765136719 348.0
310.1456604003906 762.0
312.1581726074219 426.0
313.14825439453125 240.0
317.16925048828125 550.0
318.147216796875 3099.0
319.1517639160156 412.0
320.142822265625 322.0
323.1706237792969 307.0
324.1603088378906 4331.0
325.14898681640625 218.0
333.15869140625 205.0
335.175048828125 49983.0
336.162353515625 473.0
337.17431640625 188.0
338.1774597167969 6136.0
339.1717529296875 5322.0
349.19244384765625 1008.0
350.176513671875 5246.0
351.1725158691406 192.0
365.18719482421875 5616.0
366.0780944824219 2881.0
367.2040100097656 811649.0
368.1996765136719 2167.0
368.32623291015625 1884.0
368.48516845703125 403.0
368.6468200683594 634.0
368.7546081542969 243.0
369.04840087890625 182.0
373.0789794921875 93.0

Name: Karacoline
Precursor_mz: 378.2636614
Cas: 39089-30-0
Adduct: [M+H]+
Mz: 378.2638851
Comment: Major
Smiles: CCN1C[C@]2(C)CC[C@H](O)C34C1C(C[C@@H]32)[C@@]1(O)C[C@H](OC)[C@H]2C[C@@H]4[C@@H]1[C@H]2O
Formula: C22H35NO4
Mix: Alkaloids-pos-mix33
Rt: [1.746]
Rt_apex: 1.746552786
Rt_start: 1.6952
Rt_end: 1.887683333
Ms1_intensity: 7586167
N_scnas: 34
Ms1_scan_range: [575, 588, 610]
Reci_snr: 0.000135911
Ms2_scan_idx: 683
Pmz_offset: 0.001117085
Entropy: 0.8955994844436646
Num Peaks: 136
42.033905029296875 689.0
43.018592834472656 2010.0
44.04914093017578 1129.0
56.04933547973633 2937.0
58.06438064575195 29314.0
61.029178619384766 1671.0
67.05375671386719 1566.0
70.06426239013672 571.0
71.04972839355469 1082.0
72.08138275146484 5695.0
81.06916809082031 2768.0
82.06536102294922 2022.0
84.0798568725586 3953.0
86.09664916992188 709.0
91.05428314208984 9877.0
93.06996154785156 5573.0
94.062255859375 615.0
96.08051300048828 1200.0
98.09517669677734 19353.0
105.07001495361328 7088.0
108.07898712158203 740.0
110.09728240966797 9289.0
111.10529327392578 636.0
112.11195373535156 1140.0
116.06301879882812 315.0
117.07058715820312 4336.0
119.08653259277344 3586.0
122.09619140625 4490.0
124.11255645751953 15053.0
125.12300109863281 1657.0
126.12966918945312 1876.0
127.05335235595703 464.0
128.06138610839844 1923.0
131.0852813720703 6127.0
133.1013946533203 4419.0
135.11329650878906 987.0
136.11181640625 426.0
138.1281280517578 229.0
139.07481384277344 222.0
140.10610961914062 197.0
141.0662078857422 2325.0
143.08517456054688 7174.0
144.09414672851562 248.0
145.10157775878906 6441.0
146.10914611816406 230.0
147.1184844970703 2848.0
148.11422729492188 552.0
150.12953186035156 410.0
151.07846069335938 286.0
154.08078002929688 633.0
157.10032653808594 4694.0
158.1045379638672 245.0
160.11898803710938 246.0
162.12832641601562 798.0
164.1411895751953 192.0
166.0796661376953 1033.0
167.0849151611328 2279.0
169.10267639160156 3214.0
170.1133575439453 218.0
173.12838745117188 1806.0
176.1456756591797 650.0
178.0786590576172 375.0
179.08761596679688 1500.0
185.13430786132812 3101.0
187.1120147705078 536.0
188.144287109375 799.0
189.15235900878906 530.0
190.16119384765625 1047.0
191.1707763671875 724.0
192.09742736816406 534.0
193.1004180908203 2356.0
195.11817932128906 3233.0
197.1326141357422 2626.0
199.1494903564453 3310.0
200.1448974609375 292.0
201.1228790283203 747.0
202.15911865234375 244.0
203.11199951171875 427.0
205.10287475585938 569.0
208.12054443359375 283.0
210.1337127685547 183.0
211.1480255126953 2183.0
213.1634521484375 625.0
214.1583251953125 160.0
215.13905334472656 245.0
216.17359924316406 579.0
217.10723876953125 416.0
218.11334228515625 314.0
219.1175994873047 692.0
220.1241912841797 377.0
221.12889099121094 1015.0
222.13589477539062 254.0
227.1438751220703 6020.0
233.1259765625 323.0
234.14271545410156 232.0
235.14877319335938 1316.0
237.1630096435547 2278.0
239.18148803710938 994.0
241.16058349609375 435.0
242.19032287597656 312.0
243.1325225830078 281.0
245.15643310546875 1122.0
249.16294860839844 899.0
251.17393493652344 244.0
253.1595001220703 1369.0
255.17979431152344 604.0
258.22418212890625 601.0
259.17218017578125 2495.0
266.19561767578125 184.0
269.19427490234375 843.0
271.18963623046875 279.0
272.19122314453125 287.0
281.192138671875 1014.0
282.228515625 622.0
284.20526123046875 287.0
285.1808166503906 1130.0
286.2173767089844 285.0
287.2035217285156 314.0
292.2027893066406 386.0
297.1847229003906 1082.0
299.2009582519531 684.0
300.2334899902344 1716.0
310.2191467285156 7642.0
314.2462158203125 2003.0
318.2091369628906 510.0
324.2303771972656 797.0
328.2301330566406 25864.0
342.24578857421875 28882.0
360.25531005859375 675336.0
377.0979309082031 3801.0
378.2679443359375 990584.0
379.2757568359375 2250.0
379.39874267578125 1874.0
379.5463562011719 481.0
379.7322998046875 914.0
379.8362121582031 258.0

Name: Karacoline
Precursor_mz: 400.2442991
Cas: 39089-30-0
Adduct: [M+Na]+
Mz: 400.2458293
Comment: Major
Smiles: CCN1C[C@]2(C)CC[C@H](O)C34C1C(C[C@@H]32)[C@@]1(O)C[C@H](OC)[C@H]2C[C@@H]4[C@@H]1[C@H]2O
Formula: C22H35NO4
Mix: Alkaloids-pos-mix33
Rt: [1.746]
Rt_apex: 1.745755389
Rt_start: 1.710966667
Rt_end: 1.857816667
Ms1_intensity: 25327
N_scnas: 23
Ms1_scan_range: [581, 588, 605]
Reci_snr: 0.004896163
Ms2_scan_idx: 688
Pmz_offset: 0.001277538
Entropy: 1.0
Num Peaks: 3
360.2526550292969 31.0
400.24969482421875 1260.0
408.2799072265625 31.0

Name: Mitraphylline
Precursor_mz: 369.1808464
Cas: 509-80-8
Adduct: [M+H]+
Mz: 369.1808837
Comment: Major
Smiles: COC(=O)C1=CO[C@@H](C)[C@H]2CN3CC[C@]4(C(=O)Nc5ccccc54)[C@@H]3C[C@H]12
Formula: C21H24N2O4
Mix: Alkaloids-pos-mix33
Rt: [2.585]
Rt_apex: 2.582422572
Rt_start: 2.464616667
Rt_end: 2.85275
Ms1_intensity: 4764582
N_scnas: 62
Ms1_scan_range: [715, 736, 778]
Reci_snr: 0.000207032
Ms2_scan_idx: 1136
Pmz_offset: 0.00042477
Entropy: 0.984499454498291
Num Peaks: 115
55.05470657348633 5182.0
56.04835510253906 1067.0
67.05269622802734 269.0
77.03934478759766 2313.0
78.03409576416016 944.0
79.05393981933594 2202.0
80.0502700805664 1330.0
81.07052612304688 6036.0
82.03113555908203 539.0
83.01530456542969 2023.0
89.03826141357422 3659.0
90.04617309570312 1813.0
91.05573272705078 4338.0
92.04937744140625 169.0
93.05653381347656 1215.0
94.0610122680664 463.0
95.08729553222656 684.0
96.08063507080078 1002.0
97.06529998779297 649.0
103.05451965332031 1254.0
104.05130767822266 2838.0
105.07014465332031 5749.0
106.06649017333984 1392.0
107.08641815185547 406.0
108.08203887939453 22519.0
109.06175231933594 1767.0
110.09889221191406 788.0
113.0382308959961 267.0
115.05542755126953 62344.0
116.05106353759766 5409.0
117.05857849121094 61811.0
118.06587982177734 32711.0
120.04420471191406 315.0
121.06732940673828 511.0
122.02191925048828 3025.0
123.08300018310547 636.0
124.04236602783203 38979.0
128.05519104003906 202.0
130.0655517578125 10004.0
131.0725860595703 1620.0
132.07383728027344 89857.0
133.06431579589844 801.0
134.09425354003906 580.0
136.1087188720703 481.0
137.05996704101562 196.0
139.04188537597656 540.0
140.0498046875 8030.0
142.06654357910156 165921.0
143.07359313964844 237.0
144.07916259765625 836.0
145.05274963378906 2979.0
146.0601348876953 283.0
149.0569610595703 592.0
150.09361267089844 9339.0
152.11190795898438 271.0
154.06529235839844 236.0
158.0623779296875 14484.0
159.06788635253906 1048.0
160.07833862304688 918725.0
161.0296630859375 315.0
164.10903930664062 524.0
169.07916259765625 315.0
170.0641632080078 248.0
172.07400512695312 675.0
173.11383056640625 860.0
178.09011840820312 113456.0
180.09774780273438 170.0
181.07272338867188 338.0
184.07058715820312 524.0
185.07534790039062 503.0
186.07899475097656 932.0
187.0911407470703 15202.0
192.10545349121094 201.0
197.07376098632812 216.0
199.08834838867188 2772.0
200.10147094726562 175.0
201.10520935058594 57867.0
210.1156768798828 29294.0
212.09349060058594 220.0
213.1022491455078 3791.0
215.0858154296875 519.0
227.1166534423828 200.0
229.098388671875 281.0
236.1098175048828 178.0
237.10711669921875 565.0
238.09567260742188 209.0
239.1210174560547 1884.0
241.13909912109375 13459.0
251.1230926513672 252.0
253.13302612304688 435.0
255.11062622070312 214.0
263.1207275390625 266.0
265.1391906738281 2258.0
267.1492919921875 7296.0
269.1025085449219 1620.0
279.0715026855469 241.0
281.1665954589844 4654.0
283.11126708984375 831.0
291.1557922363281 3226.0
293.1346740722656 616.0
307.14739990234375 411.0
309.1650085449219 103339.0
319.1464538574219 1053.0
335.146484375 375.0
336.1131896972656 386.0
337.1611328125 102140.0
339.1740417480469 178.0
341.1877746582031 440.0
367.1714172363281 4452.0
368.0485534667969 823.0
369.1855773925781 375920.0
370.1812438964844 305.0
370.38916015625 398.0
370.62957763671875 221.0
370.7376403808594 158.0

Name: Mitraphylline
Precursor_mz: 391.1609532
Cas: 509-80-8
Adduct: [M+Na]+
Mz: 391.162828
Comment: Major
Smiles: COC(=O)C1=CO[C@@H](C)[C@H]2CN3CC[C@]4(C(=O)Nc5ccccc54)[C@@H]3C[C@H]12
Formula: C21H24N2O4
Mix: Alkaloids-pos-mix33
Rt: [2.585]
Rt_apex: 2.572969775
Rt_start: 2.48545
Rt_end: 2.77275
Ms1_intensity: 28198
N_scnas: 45
Ms1_scan_range: [718, 734, 764]
Reci_snr: 0.002718348
Ms2_scan_idx: 1131
Pmz_offset: 0.000508945
Entropy: 1.0
Num Peaks: 6
149.02073669433594 405.0
187.08314514160156 123.0
241.1321563720703 355.0
263.11346435546875 182.0
335.08941650390625 176.0
391.1658020019531 2092.0

Name: Imperialine 3-β-D-glucoside
Precursor_mz: 592.3841857
Cas: 67968-40-5
Adduct: [M+H]+
Mz: 592.3843941
Comment: Major
Smiles: C[C@H]1CC[C@@H]2N(C1)C[C@H]1[C@@H]3C[C@H]4[C@@H](CC(=O)[C@H]5C[C@@H](O[C@@H]6O[C@H](CO)[C@@H](O)[C@H](O)[C@H]6O)CC[C@@]54C)[C@@H]3CC[C@H]1[C@]2(C)O
Formula: C33H53NO8
Mix: Alkaloids-pos-mix33
Rt: [2.305]
Rt_apex: 2.306222565
Rt_start: 2.2623
Rt_end: 2.53755
Ms1_intensity: 7632491
N_scnas: 43
Ms1_scan_range: [684, 691, 728]
Reci_snr: 2.83e-05
Ms2_scan_idx: 956
Pmz_offset: 0.000327741
Entropy: 0.9635384678840637
Num Peaks: 24
79.05252838134766 198.0
94.0608139038086 311.0
96.08042907714844 1024.0
98.09925842285156 710.0
112.11334228515625 745.0
138.1280059814453 19139.0
394.30548095703125 982.0
412.3160400390625 4525.0
572.3626098632812 196.0
591.8064575195312 173.0
592.0488891601562 208.0
592.386962890625 1149291.0
593.6582641601562 4113.0
593.8223876953125 4708.0
594.0823364257812 235.0
594.2225952148438 1327.0
594.3526000976562 402.0
594.4723510742188 175.0
594.5955200195312 261.0
594.72900390625 226.0
594.8624877929688 183.0
594.9959716796875 205.0
595.502685546875 172.0
596.4105834960938 167.0

Name: N-​Benzyllinolenamide
Precursor_mz: 368.2959343
Cas: 883715-18-2
Adduct: [M+H]+
Mz: 368.2947913
Comment: Major
Smiles: CC/C=C\C/C=C\C/C=C\CCCCCCCC(=O)NCc1ccccc1
Formula: C25H37NO
Mix: Alkaloids-pos-mix34
Rt: [6.64]
Rt_apex: 6.63705832
Rt_start: 6.590133333
Rt_end: 6.72835
Ms1_intensity: 55689
N_scnas: 25
Ms1_scan_range: [1422, 1431, 1448]
Reci_snr: 0.001468827
Ms2_scan_idx: 3265
Pmz_offset: 0.002243579
Entropy: 1.0
Num Peaks: 7
65.03612518310547 77.0
67.0535659790039 102.0
81.07020568847656 239.0
91.05537414550781 3035.0
95.08419036865234 94.0
109.09944915771484 128.0
368.4244079589844 408.0

Name: chaetoglobosin Vb
Precursor_mz: 529.2706728
Cas: 1399690-75-5
Adduct: [M+H]+
Mz: 529.2696987
Comment: Major
Smiles: CC1=C(C)[C@H]2[C@H](Cc3c[nH]c4ccccc34)NC(=O)[C@]23C(=O)C[C@H]2C(=O)C(O)=C(C)[C@@H]2[C@@H](C)CC=C[C@H]3[C@@H]1O
Formula: C32H36N2O5
Mix: Alkaloids-pos-mix34
Rt: [3.9]
Rt_apex: 3.896189154
Rt_start: 3.78505
Rt_end: 4.098366667
Ms1_intensity: 780770
N_scnas: 43
Ms1_scan_range: [888, 904, 932]
Reci_snr: 0.000347151
Ms2_scan_idx: 1904
Pmz_offset: 0.00040848
Entropy: 1.0
Num Peaks: 127
91.05403900146484 382.0
103.05413055419922 199.0
105.06831359863281 241.0
107.08020782470703 207.0
115.05500793457031 281.0
117.05511474609375 858.0
118.06391906738281 2093.0
119.08317565917969 849.0
121.062255859375 221.0
129.0699005126953 256.0
130.06349182128906 21730.0
131.08497619628906 456.0
132.0814208984375 10367.0
135.0771026611328 541.0
139.07449340820312 196.0
142.07774353027344 206.0
144.08033752441406 399.0
145.0995635986328 561.0
151.07122802734375 466.0
157.0982208251953 1035.0
159.09210205078125 3326.0
160.0724639892578 224.0
161.09144592285156 461.0
162.09043884277344 384.0
167.0573272705078 781.0
169.10047912597656 1313.0
171.11566162109375 496.0
173.09292602539062 798.0
174.09136962890625 2108.0
175.1075439453125 248.0
176.10804748535156 232.0
179.0703125 363.0
182.09706115722656 313.0
183.1173095703125 332.0
185.07089233398438 6001.0
186.08985900878906 478.0
187.10777282714844 650.0
188.10537719726562 1177.0
189.0882568359375 259.0
190.0833740234375 178.0
195.12559509277344 192.0
197.0908203125 250.0
198.10279846191406 190.0
199.1154022216797 268.0
200.10873413085938 1484.0
201.1125030517578 670.0
202.1187744140625 523.0
204.09877014160156 272.0
205.0903778076172 166.0
207.11109924316406 247.0
209.1335906982422 168.0
210.09259033203125 235.0
211.1169891357422 174.0
212.10299682617188 181.0
213.11997985839844 242.0
214.12091064453125 352.0
221.1388702392578 189.0
224.10797119140625 174.0
226.12088012695312 272.0
228.1406707763672 672.0
230.1566619873047 231.0
235.14828491210938 275.0
237.13226318359375 153.0
238.123046875 180.0
240.1369171142578 194.0
246.13690185546875 262.0
249.12921142578125 290.0
251.14895629882812 232.0
258.1334533691406 276.0
261.1658630371094 732.0
262.13287353515625 365.0
263.1836242675781 216.0
271.1544189453125 369.0
273.166259765625 278.0
274.13665771484375 522.0
277.1562194824219 289.0
278.1593933105469 245.0
279.1714172363281 601.0
289.15643310546875 1046.0
291.1811828613281 612.0
292.1398620605469 225.0
295.1675109863281 228.0
297.19140625 361.0
301.1625061035156 185.0
302.1545104980469 176.0
303.1432800292969 177.0
305.152587890625 326.0
306.185546875 185.0
307.1710205078125 2809.0
309.18377685546875 796.0
316.1690673828125 436.0
317.1554870605469 357.0
318.1934814453125 229.0
319.175537109375 457.0
320.1741638183594 184.0
323.1617431640625 336.0
324.1893310546875 283.0
325.18817138671875 1331.0
331.18536376953125 937.0
333.1983337402344 278.0
334.1750183105469 587.0
335.1634216308594 647.0
336.1996154785156 365.0
337.18841552734375 240.0
344.16119384765625 583.0
346.1844177246094 545.0
352.197509765625 903.0
353.172607421875 254.0
355.1930236816406 777.0
359.21923828125 197.0
361.2195129394531 508.0
362.1829833984375 1754.0
364.19415283203125 415.0
376.1848449707031 169.0
380.1856994628906 1656.0
382.19952392578125 553.0
394.19921875 204.0
398.19085693359375 323.0
427.240478515625 285.0
451.2379455566406 219.0
465.2516784667969 413.0
469.2467346191406 207.0
475.2484436035156 777.0
483.2729797363281 190.0
493.2547607421875 1851.0
511.2626647949219 3338.0
529.2705078125 11500.0

Name: chaetoglobosin Vb
Precursor_mz: 551.2512907
Cas: 1399690-75-5
Adduct: [M+Na]+
Mz: 551.251643
Comment: Major
Smiles: CC1=C(C)[C@H]2[C@H](Cc3c[nH]c4ccccc34)NC(=O)[C@]23C(=O)C[C@H]2C(=O)C(O)=C(C)[C@@H]2[C@@H](C)CC=C[C@H]3[C@@H]1O
Formula: C32H36N2O5
Mix: Alkaloids-pos-mix34
Rt: [3.9]
Rt_apex: 3.891218641
Rt_start: 3.853716667
Rt_end: 4.098366667
Ms1_intensity: 160315
N_scnas: 33
Ms1_scan_range: [898, 903, 932]
Reci_snr: 0.002622526
Ms2_scan_idx: 1906
Pmz_offset: 0.000985159
Entropy: 1.0000001192092896
Num Peaks: 7
131.06890869140625 62.0
505.24835205078125 93.0
523.2536010742188 123.0
533.2555541992188 92.0
551.2577514648438 61532.0
552.2532958984375 998.0
553.2793579101562 62.0

Name: chaetoglobosin Vb
Precursor_mz: 546.29527
Cas: 1399690-75-5
Adduct: [M+NH4]+
Mz: 546.2962478
Comment: Major
Smiles: CC1=C(C)[C@H]2[C@H](Cc3c[nH]c4ccccc34)NC(=O)[C@]23C(=O)C[C@H]2C(=O)C(O)=C(C)[C@@H]2[C@@H](C)CC=C[C@H]3[C@@H]1O
Formula: C32H36N2O5
Mix: Alkaloids-pos-mix34
Rt: [3.9]
Rt_apex: 3.895994706
Rt_start: 3.81705
Rt_end: 4.025533333
Ms1_intensity: 34327
N_scnas: 28
Ms1_scan_range: [893, 904, 922]
Reci_snr: 0.003120852
Ms2_scan_idx: 1879
Pmz_offset: 0.002345687
Entropy: 1.0
Num Peaks: 46
107.08457946777344 179.0
117.05968475341797 212.0
118.0685043334961 596.0
119.08472442626953 300.0
130.06509399414062 5711.0
132.07821655273438 3093.0
157.09999084472656 474.0
159.09034729003906 1762.0
162.09759521484375 183.0
167.0627899169922 217.0
169.0986785888672 195.0
171.11935424804688 188.0
173.10032653808594 318.0
174.08953857421875 900.0
185.07281494140625 3169.0
187.115478515625 173.0
188.1034698486328 518.0
200.10081481933594 398.0
228.13221740722656 198.0
261.16815185546875 166.0
274.1366882324219 197.0
279.17144775390625 364.0
289.1588439941406 579.0
291.16925048828125 316.0
305.1648864746094 173.0
307.1710510253906 865.0
309.19366455078125 293.0
316.174072265625 180.0
323.15673828125 202.0
325.1856689453125 615.0
331.1854248046875 464.0
333.1932373046875 256.0
334.1802062988281 386.0
344.163818359375 372.0
352.1922607421875 466.0
355.1930847167969 404.0
362.1750183105469 682.0
364.1968994140625 246.0
380.1911926269531 830.0
382.1995544433594 294.0
398.20489501953125 339.0
465.26080322265625 223.0
475.23931884765625 321.0
493.251708984375 1381.0
511.2658996582031 2132.0
529.2770385742188 7956.0

Name: Nordihydrocapsaicin
Precursor_mz: 294.2074291
Cas: 28789-35-7
Adduct: [M+H]+
Mz: 294.2063702
Comment: Major
Smiles: COc1cc(CNC(=O)CCCCCC(C)C)ccc1O
Formula: C17H27NO3
Mix: Alkaloids-pos-mix34
Rt: [4.449]
Rt_apex: 4.445076686
Rt_start: 4.3719
Rt_end: 5.074733333
Ms1_intensity: 2511002
N_scnas: 112
Ms1_scan_range: [972, 982, 1085]
Reci_snr: 6.48e-05
Ms2_scan_idx: 2331
Pmz_offset: 0.002221839
Entropy: 0.9481103420257568
Num Peaks: 41
41.0389404296875 1672.0
43.05255889892578 2326.0
50.01394271850586 154.0
51.02234649658203 882.0
53.040733337402344 374.0
55.01704788208008 729.0
57.068729400634766 2601.0
59.04792404174805 284.0
65.0373306274414 1879.0
66.04505920410156 8523.0
67.05363464355469 2810.0
69.07039642333984 611.0
71.08627319335938 1444.0
74.06055450439453 310.0
77.03912353515625 5259.0
79.0549545288086 6473.0
81.0702896118164 11618.0
83.0841293334961 169.0
85.06182861328125 154.0
88.07660675048828 1163.0
91.05279541015625 7965.0
93.03326416015625 549.0
94.04169464111328 171145.0
95.0884017944336 369.0
97.10236358642578 371.0
105.03246307373047 1670.0
107.0498275756836 3831.0
109.06292724609375 2082.0
114.0922622680664 404.0
119.04654693603516 195.0
121.09789276123047 191.0
122.03555297851562 290845.0
123.11537170410156 6451.0
135.04136657714844 1931.0
137.0596160888672 1250225.0
138.05868530273438 194.0
139.1077423095703 179.0
140.17237854003906 92.0
141.12603759765625 844.0
170.15708923339844 2040.0
294.21624755859375 93.0

Name: Nordihydrocapsaicin
Precursor_mz: 316.1884402
Cas: 28789-35-7
Adduct: [M+Na]+
Mz: 316.1883144
Comment: Major
Smiles: COc1cc(CNC(=O)CCCCCC(C)C)ccc1O
Formula: C17H27NO3
Mix: Alkaloids-pos-mix34
Rt: [4.449]
Rt_apex: 4.44420641
Rt_start: 4.361683333
Rt_end: 4.682
Ms1_intensity: 279417
N_scnas: 48
Ms1_scan_range: [970, 982, 1019]
Reci_snr: 0.000404829
Ms2_scan_idx: 2336
Pmz_offset: 0.001019501
Entropy: 0.9999998807907104
Num Peaks: 4
46.06382369995117 93.0
91.05413818359375 31.0
137.05796813964844 93.0
316.1843566894531 1274.0

Name: (-)-Isocorypalmine
Precursor_mz: 342.1699809
Cas: 483-34-1
Adduct: [M+H]+
Mz: 342.1699847
Comment: Major
Smiles: COc1cc2c(cc1O)[C@@H]1Cc3ccc(OC)c(OC)c3CN1CC2
Formula: C20H23NO4
Mix: Alkaloids-pos-mix34
Rt: [2.433]
Rt_apex: 2.433292865
Rt_start: 2.3875
Rt_end: 2.6203
Ms1_intensity: 3714301
N_scnas: 36
Ms1_scan_range: [676, 685, 713]
Reci_snr: 0.00014177
Ms2_scan_idx: 958
Pmz_offset: 0.000955879
Entropy: 0.9301314353942871
Num Peaks: 145
65.03744506835938 812.0
77.03926086425781 2104.0
79.05510711669922 2525.0
80.06148529052734 217.0
89.03684997558594 532.0
90.04475402832031 336.0
91.05296325683594 35273.0
93.06998443603516 270.0
94.03914642333984 183.0
95.04752349853516 3709.0
103.0530014038086 1851.0
104.06266784667969 596.0
105.07005310058594 4255.0
106.06495666503906 2464.0
107.04856872558594 3411.0
108.0556869506836 1660.0
109.06605529785156 853.0
115.05533599853516 1957.0
116.0494613647461 1227.0
117.0539321899414 1181.0
118.06426239013672 2739.0
119.04983520507812 28489.0
120.0410385131836 803.0
121.0625991821289 1577.0
122.07144165039062 495.0
123.07978820800781 1393.0
130.06546020507812 330.0
131.04840087890625 1203.0
132.04954528808594 305.0
133.0658416748047 2449.0
134.06002807617188 40859.0
135.0677032470703 54315.0
136.0513153076172 9308.0
137.0582275390625 2082.0
138.0638885498047 244.0
143.04664611816406 3353.0
145.05433654785156 275.0
146.06173706054688 3092.0
147.0692138671875 1002.0
148.07333374023438 1652.0
149.05857849121094 2248.0
150.06773376464844 17561.0
151.07510375976562 101753.0
158.06051635742188 1236.0
159.07485961914062 214.0
160.07113647460938 1917.0
161.07943725585938 3653.0
162.0533905029297 3652.0
163.06431579589844 634981.0
164.0855712890625 1188.0
165.09197998046875 26347.0
167.0832061767578 265.0
172.07943725585938 221.0
174.08816528320312 639.0
175.07461547851562 2992.0
176.07130432128906 33610.0
177.07455444335938 1438.0
178.08815002441406 1299451.0
179.08773803710938 1074.0
180.09576416015625 326.0
188.0674285888672 356.0
189.08108520507812 585.0
190.0858612060547 3617.0
191.0933074951172 5590.0
192.10145568847656 19779.0
194.0788116455078 202.0
195.08106994628906 264.0
202.08544921875 254.0
203.09616088867188 234.0
204.1013641357422 1392.0
205.1090545654297 232.0
206.0668487548828 218.0
207.08140563964844 827.0
208.09439086914062 311.0
209.09767150878906 393.0
218.07412719726562 372.0
219.08038330078125 670.0
220.08897399902344 344.0
221.09359741210938 659.0
222.0984344482422 787.0
223.08876037597656 404.0
224.081298828125 428.0
231.08224487304688 259.0
232.1201934814453 308.0
233.09617614746094 402.0
234.10211181640625 865.0
235.06935119628906 691.0
236.07737731933594 330.0
237.0875701904297 682.0
238.09774780273438 510.0
239.1013946533203 483.0
240.10281372070312 239.0
241.10848999023438 258.0
247.076416015625 459.0
248.0855255126953 254.0
249.0878448486328 964.0
250.09661865234375 1047.0
251.09852600097656 1629.0
252.10244750976562 695.0
253.11061096191406 519.0
254.1185302734375 503.0
255.0993194580078 210.0
256.1291809082031 372.0
260.0972595214844 562.0
261.0849609375 469.0
262.1040954589844 720.0
263.07513427734375 538.0
264.10723876953125 749.0
265.1162414550781 1564.0
266.1180114746094 2923.0
267.1010437011719 1596.0
268.1180419921875 810.0
269.11395263671875 377.0
276.1043395996094 342.0
277.1056213378906 600.0
278.0852966308594 808.0
279.09954833984375 4751.0
280.1367492675781 1998.0
281.1100158691406 1372.0
282.1132507324219 1066.0
283.10174560546875 1452.0
284.1321716308594 1532.0
292.1335144042969 2009.0
293.1177673339844 4069.0
294.1156921386719 9774.0
295.1008605957031 2019.0
296.12872314453125 2936.0
297.13177490234375 1581.0
298.1413879394531 3362.0
299.1259765625 306.0
308.13189697265625 6529.0
309.1402282714844 1413.0
310.13787841796875 3488.0
311.1173400878906 1159.0
312.12310791015625 3243.0
313.1454162597656 897.0
324.1270751953125 192.0
325.14862060546875 2691.0
326.1413269042969 23800.0
327.14825439453125 9228.0
341.1151123046875 643.0
342.1734313964844 536720.0
343.17877197265625 235.0
343.31658935546875 265.0
343.5662536621094 211.0

Name: (-)-Isocorypalmine
Precursor_mz: 342.1695548
Cas: 483-34-1
Adduct: [M+H]+
Mz: 342.1699847
Comment: Minor
Smiles: COc1cc2c(cc1O)[C@@H]1Cc3ccc(OC)c(OC)c3CN1CC2
Formula: C20H23NO4
Mix: Alkaloids-pos-mix34
Rt: [2.433]
Rt_apex: 2.370221446
Rt_start: 2.3
Rt_end: 2.3875
Ms1_intensity: 9949
N_scnas: 16
Ms1_scan_range: [659, 673, 676]
Reci_snr: 0.040696312
Ms2_scan_idx: 932
Pmz_offset: 0.000529756
Entropy: 1.0000001192092896
Num Peaks: 24
179.08741760253906 168.0
191.08908081054688 87.0
203.08578491210938 99.0
207.089111328125 109.0
219.0841522216797 157.0
220.0906524658203 110.0
221.05772399902344 119.0
235.07537841796875 236.0
236.08773803710938 157.0
237.0893096923828 309.0
238.06268310546875 220.0
247.07376098632812 129.0
248.08729553222656 257.0
250.10060119628906 216.0
253.09005737304688 818.0
265.0791931152344 223.0
267.0982666015625 96.0
277.1004638671875 87.0
279.1060791015625 193.0
280.1174621582031 167.0
281.0812683105469 481.0
296.10406494140625 583.0
311.1316223144531 837.0
342.17022705078125 169.0

Name: Maytansine
Precursor_mz: 692.2975699
Cas: 35846-53-8
Adduct: [M+H]+
Mz: 692.2944488
Comment: Major
Smiles: COc1cc2cc(c1Cl)N(C)C(=O)CC(OC(=O)C(C)N(C)C(C)=O)C1(C)OC1C(C)C1CC(O)(NC(=O)O1)C(OC)C=CC=C(C)C2
Formula: C34H46ClN3O10
Mix: Alkaloids-pos-mix34
Rt: [4.111]
Rt_apex: 4.105374271
Rt_start: 3.966716667
Rt_end: 4.393683333
Ms1_intensity: 1770282
N_scnas: 60
Ms1_scan_range: [914, 933, 975]
Reci_snr: 6.82e-05
Ms2_scan_idx: 2063
Pmz_offset: 0.001212082
Entropy: 0.9509451389312744
Num Peaks: 229
42.03287887573242 258.0
53.03866195678711 240.0
56.0491943359375 184.0
58.0653076171875 13758.0
80.0474853515625 248.0
81.03360748291016 356.0
91.05140686035156 380.0
93.06976318359375 474.0
94.0675048828125 541.0
99.04239654541016 295.0
100.07577514648438 54867.0
104.069580078125 690.0
105.06836700439453 190.0
107.08316802978516 207.0
109.02622985839844 1652.0
110.05731201171875 272.0
111.07845306396484 1144.0
118.06398010253906 296.0
119.08477020263672 576.0
120.0776596069336 665.0
121.06848907470703 369.0
128.0706787109375 138845.0
132.0814971923828 716.0
133.06228637695312 233.0
134.095458984375 514.0
135.08042907714844 696.0
136.07882690429688 199.0
137.05953979492188 323.0
139.0762176513672 1570.0
142.07781982421875 170.0
144.07872009277344 343.0
145.0624542236328 429.0
146.09530639648438 1430.0
147.08078002929688 317.0
148.07638549804688 249.0
149.0599365234375 2459.0
150.0897216796875 512.0
155.08377075195312 211.0
157.09829711914062 257.0
158.0936737060547 459.0
159.10635375976562 431.0
160.10983276367188 1598.0
161.12002563476562 595.0
162.08872985839844 454.0
163.0728759765625 485.0
164.10855102539062 275.0
165.0897979736328 177.0
169.09144592285156 241.0
170.0947723388672 435.0
171.10105895996094 336.0
172.11032104492188 581.0
174.089599609375 811.0
176.10626220703125 406.0
182.10093688964844 254.0
183.08132934570312 204.0
184.05482482910156 3427.0
185.0919952392578 199.0
186.08804321289062 303.0
187.10211181640625 306.0
188.10739135742188 2069.0
189.1134490966797 1115.0
190.12411499023438 326.0
198.07130432128906 405.0
200.10684204101562 811.0
201.11459350585938 759.0
202.1228790283203 1003.0
206.08448791503906 256.0
208.0574493408203 381.0
210.06422424316406 286.0
212.1112823486328 1164.0
213.11395263671875 474.0
214.12307739257812 557.0
216.1051788330078 388.0
221.06178283691406 464.0
222.0727996826172 3340.0
223.0819549560547 187.0
224.08287048339844 4561.0
226.1273193359375 477.0
227.09487915039062 607.0
228.1005096435547 511.0
229.10836791992188 600.0
230.12271118164062 395.0
233.0570526123047 307.0
234.0650634765625 195.0
235.0752410888672 183.0
236.08544921875 3566.0
238.1015167236328 467.0
240.13485717773438 283.0
241.110107421875 266.0
242.12225341796875 512.0
246.07098388671875 827.0
247.07583618164062 195.0
248.08937072753906 2533.0
249.1204833984375 170.0
250.06272888183594 573.0
251.12684631347656 224.0
252.07066345214844 239.0
254.1403045654297 229.0
256.09710693359375 447.0
260.0785217285156 354.0
262.1011962890625 985.0
264.07696533203125 1305.0
265.1087646484375 289.0
266.1219482421875 317.0
268.140380859375 1004.0
269.1432189941406 513.0
272.0820007324219 344.0
274.06011962890625 680.0
276.0757141113281 279.0
278.0940246582031 236.0
280.13140869140625 254.0
281.1376037597656 180.0
286.1053771972656 278.0
288.121826171875 555.0
289.1136169433594 381.0
290.0927734375 872.0
291.12628173828125 571.0
293.1218566894531 190.0
294.1438903808594 199.0
295.1459655761719 182.0
300.1114807128906 225.0
301.1066589355469 164.0
302.09124755859375 328.0
303.1312255859375 507.0
304.1117858886719 817.0
305.1478576660156 1463.0
306.1316833496094 391.0
314.09405517578125 206.0
315.1295166015625 589.0
316.1093444824219 990.0
317.0956726074219 433.0
318.1360778808594 257.0
319.17822265625 377.0
320.14923095703125 232.0
321.13177490234375 471.0
326.1354675292969 172.0
327.1398620605469 153.0
328.1483154296875 373.0
329.1099548339844 344.0
330.1214294433594 440.0
331.124267578125 862.0
332.108154296875 435.0
333.13958740234375 649.0
335.1610412597656 573.0
337.1654052734375 367.0
339.1318054199219 244.0
341.10394287109375 406.0
342.1414794921875 161.0
343.16497802734375 534.0
344.1483459472656 521.0
345.1748352050781 1999.0
347.14874267578125 484.0
353.13323974609375 203.0
354.1492919921875 153.0
355.1588439941406 3256.0
356.1618957519531 325.0
357.13983154296875 246.0
359.11834716796875 817.0
360.13763427734375 1556.0
361.13433837890625 168.0
363.14794921875 260.0
366.1251525878906 274.0
370.15057373046875 187.0
371.1529235839844 1264.0
372.1485290527344 523.0
373.1562805175781 351.0
375.1677551269531 390.0
376.1768798828125 335.0
380.1338806152344 180.0
382.153076171875 275.0
383.1880187988281 381.0
384.1831359863281 212.0
385.1877746582031 185.0
386.15234375 334.0
387.1871643066406 366.0
389.22222900390625 374.0
391.14324951171875 510.0
393.1775207519531 312.0
394.1576232910156 376.0
395.1612548828125 342.0
397.1695861816406 153.0
399.2138366699219 1226.0
400.1929931640625 402.0
401.19305419921875 350.0
407.1855773925781 960.0
408.1801452636719 796.0
409.2156677246094 164.0
411.1824951171875 932.0
414.14447021484375 1039.0
417.2202453613281 1044.0
418.1609802246094 424.0
421.1651916503906 188.0
422.1535949707031 208.0
425.2068176269531 2192.0
426.1912841796875 420.0
427.211669921875 213.0
435.1875 23727.0
436.1717224121094 4859.0
443.177978515625 339.0
446.1757507324219 272.0
449.2014465332031 564.0
450.19244384765625 267.0
453.1988525390625 72268.0
454.1763000488281 2693.0
457.2259826660156 246.0
467.218505859375 9659.0
468.2018127441406 4924.0
471.2067565917969 2273.0
472.19122314453125 971.0
479.1757507324219 436.0
485.2249450683594 104273.0
486.2084655761719 1416.0
497.1961975097656 1518.0
503.2318115234375 1846.0
504.2207946777344 342.0
511.199462890625 427.0
515.2052001953125 681.0
529.2159423828125 9194.0
547.2258911132812 318822.0
565.22021484375 1173.0
580.2592163085938 301.0
581.236572265625 297.0
598.2659301757812 4892.0
612.2935180664062 1233.0
630.300537109375 36145.0
642.279541015625 486.0
656.27880859375 185.0
674.2935791015625 11007.0
692.3010864257812 155202.0

Name: Maytansine
Precursor_mz: 714.279631
Cas: 35846-53-8
Adduct: [M+Na]+
Mz: 714.2763931
Comment: Major
Smiles: COc1cc2cc(c1Cl)N(C)C(=O)CC(OC(=O)C(C)N(C)C(C)=O)C1(C)OC1C(C)C1CC(O)(NC(=O)O1)C(OC)C=CC=C(C)C2
Formula: C34H46ClN3O10
Mix: Alkaloids-pos-mix34
Rt: [4.111]
Rt_apex: 4.104359303
Rt_start: 3.95205
Rt_end: 4.386183333
Ms1_intensity: 506378
N_scnas: 61
Ms1_scan_range: [912, 933, 974]
Reci_snr: 0.003233219
Ms2_scan_idx: 2007
Pmz_offset: 0.002965024
Entropy: 0.9999998807907104
Num Peaks: 10
168.06582641601562 93.0
400.1205139160156 93.0
507.2005310058594 154.0
508.1839294433594 154.0
525.2145385742188 299.0
551.2125854492188 123.0
569.2115478515625 1556.0
587.23779296875 123.0
653.2703857421875 252.0
714.2849731445312 7271.0

Name: (R,S)-Anatabine
Precursor_mz: 161.1059087
Cas: 2743-90-0
Adduct: [M+H]+
Mz: 161.1073248
Comment: Major
Smiles: C1=CCC(c2cccnc2)NC1
Formula: C10H12N2
Mix: Alkaloids-pos-mix34
Rt: [0.348, 0.498]
Rt_apex: 0.346439879
Rt_start: 0.31475
Rt_end: 0.4105
Ms1_intensity: 1916360
N_scnas: 20
Ms1_scan_range: [101, 106, 122]
Reci_snr: 0.000166854
Ms2_scan_idx: 179
Pmz_offset: 0.001444301
Entropy: 0.9999998807907104
Num Peaks: 25
53.03861999511719 258.0
65.03724670410156 806.0
67.04090881347656 93.0
77.03778839111328 195.0
78.03128814697266 211.0
80.04742431640625 2012.0
82.0638427734375 348.0
89.03789520263672 491.0
90.0457992553711 390.0
91.05268096923828 1517.0
92.05034637451172 881.0
93.05615234375 218.0
102.04652404785156 310.0
104.05088806152344 92.0
106.06462097167969 154.0
107.05985260009766 1006.0
115.05347442626953 1345.0
117.05660247802734 1582.0
118.06846618652344 597.0
129.060302734375 254.0
132.07977294921875 154.0
141.0558319091797 177.0
142.0659942626953 1422.0
143.07305908203125 2682.0
144.07861328125 2448.0

Name: (R,S)-Anatabine
Precursor_mz: 161.1047301
Cas: 2743-90-0
Adduct: [M+H]+
Mz: 161.1073248
Comment: isomer
Smiles: C1=CCC(c2cccnc2)NC1
Formula: C10H12N2
Mix: Alkaloids-pos-mix34
Rt: [0.348, 0.498]
Rt_apex: 9.486740119
Rt_start: 9.4205
Rt_end: 9.583666667
Ms1_intensity: 4028
N_scnas: 20
Ms1_scan_range: [2050, 2059, 2071]
Reci_snr: 0.000452799
Ms2_scan_idx: 4141
Pmz_offset: 0.000265664
Entropy: 0.9999998807907104
Num Peaks: 9
80.04740905761719 757.0
82.06510162353516 123.0
91.05132293701172 205.0
107.0598373413086 92.0
115.05345153808594 354.0
117.05962371826172 245.0
142.06932067871094 92.0
143.0679931640625 207.0
144.0802764892578 287.0

Name: Glaucine
Precursor_mz: 356.1848509
Cas: 475-81-0
Adduct: [M+H]+
Mz: 356.1856347
Comment: Major
Smiles: COc1cc2c(cc1OC)-c1c(OC)c(OC)cc3c1[C@H](C2)N(C)CC3
Formula: C21H25NO4
Mix: Alkaloids-pos-mix34
Rt: [2.722]
Rt_apex: 2.716591741
Rt_start: 2.6813
Rt_end: 3.308266667
Ms1_intensity: 5031314
N_scnas: 96
Ms1_scan_range: [722, 727, 819]
Reci_snr: 5.05e-05
Ms2_scan_idx: 1212
Pmz_offset: 0.000269896
Entropy: 0.9999998807907104
Num Peaks: 49
44.049041748046875 455.0
165.07005310058594 193.0
178.07846069335938 327.0
179.08929443359375 255.0
189.06724548339844 254.0
190.07391357421875 364.0
191.085205078125 1304.0
195.07484436035156 275.0
202.0830841064453 195.0
203.08580017089844 324.0
205.0664825439453 246.0
206.0745391845703 302.0
207.0830535888672 935.0
208.0879364013672 877.0
217.0615234375 313.0
218.0758056640625 288.0
219.0862274169922 868.0
220.08441162109375 1461.0
221.0952911376953 483.0
223.10513305664062 808.0
224.0872039794922 366.0
232.0876922607422 208.0
233.09146118164062 660.0
234.06948852539062 209.0
235.07752990722656 937.0
236.08558654785156 2765.0
237.0893096923828 351.0
239.10096740722656 663.0
247.07156372070312 361.0
248.08287048339844 292.0
249.09182739257812 623.0
250.10060119628906 362.0
251.1069793701172 4035.0
252.08639526367188 542.0
261.0890197753906 303.0
262.0968017578125 241.0
263.10650634765625 568.0
264.0771179199219 435.0
267.1097106933594 1304.0
277.09112548828125 557.0
278.0894775390625 402.0
279.1037292480469 10194.0
280.0751953125 267.0
282.131591796875 199.0
294.1247863769531 28230.0
295.0979309082031 9455.0
310.1175537109375 12255.0
325.1455078125 6664.0
356.1859130859375 456.0

Name: Groenlandicine
Precursor_mz: 322.1073597
Cas: 38691-95-1
Adduct: [M]+
Mz: 322.1073844
Comment: Major
Smiles: COc1cc2c(cc1O)CC[n+]1cc3c4c(ccc3cc1-2)OCO4
Formula: C19H16NO4+
Mix: Alkaloids-pos-mix34
Rt: [2.423]
Rt_apex: 2.420155632
Rt_start: 2.203333333
Rt_end: 4.111866667
Ms1_intensity: 552684
N_scnas: 290
Ms1_scan_range: [643, 683, 934]
Reci_snr: 0.00256287
Ms2_scan_idx: 951
Pmz_offset: 0.0015585
Entropy: 1.0
Num Peaks: 42
167.07041931152344 182.0
190.0586700439453 179.0
191.0757293701172 522.0
192.08578491210938 877.0
194.09823608398438 208.0
196.07598876953125 518.0
203.07403564453125 404.0
204.0872039794922 626.0
208.0760498046875 401.0
220.07843017578125 2572.0
221.08511352539062 4744.0
222.09202575683594 4377.0
223.10330200195312 496.0
224.06857299804688 434.0
232.07301330566406 500.0
233.08531188964844 1001.0
234.0933837890625 2076.0
236.0750732421875 2129.0
237.08094787597656 232.0
248.06991577148438 2578.0
249.0810546875 6766.0
250.08981323242188 40130.0
251.09837341308594 12953.0
252.066650390625 199.0
260.074462890625 303.0
261.0780029296875 251.0
262.0880432128906 2006.0
264.0705871582031 3267.0
276.0668640136719 4186.0
277.0774230957031 4770.0
278.0827941894531 36019.0
279.0946960449219 60911.0
290.0885314941406 312.0
292.0613708496094 2363.0
294.1155090332031 2662.0
304.0633850097656 218.0
305.0699462890625 2793.0
306.0830993652344 5708.0
307.0881042480469 161135.0
320.0970458984375 787.0
321.12982177734375 227.0
322.1138610839844 88565.0

Name: Rocaglamide
Precursor_mz: 506.2189635
Cas: 84573-16-0
Adduct: [M+H]+
Mz: 506.2173288
Comment: Major
Smiles: COc1ccc([C@@]23Oc4cc(OC)cc(OC)c4[C@@]2(O)[C@H](O)[C@H](C(=O)N(C)C)[C@H]3c2ccccc2)cc1
Formula: C29H31NO7
Mix: Alkaloids-pos-mix34
Rt: [4.15]
Rt_apex: 4.152024652
Rt_start: 4.0842
Rt_end: 4.30435
Ms1_intensity: 6125670
N_scnas: 31
Ms1_scan_range: [930, 940, 962]
Reci_snr: 4.95e-05
Ms2_scan_idx: 2104
Pmz_offset: 0.003034108
Entropy: 0.9880980253219604
Num Peaks: 179
42.03385543823242 173.0
44.04908752441406 317.0
46.06577682495117 186727.0
72.04559326171875 50474.0
77.03919982910156 981.0
90.0566635131836 441.0
91.05557250976562 1490.0
95.04882049560547 605.0
98.05760192871094 1620.0
102.04534912109375 264.0
103.05435180664062 510.0
105.03401947021484 5241.0
107.0513916015625 1000.0
109.06597137451172 340.0
111.04608917236328 220.0
112.05248260498047 365.0
114.05341339111328 3131.0
115.05374145507812 16883.0
117.06902313232422 554.0
121.06559753417969 5090.0
123.0423355102539 1143.0
126.05399322509766 460.0
128.0661163330078 207.0
129.0733642578125 660.0
130.03814697265625 178.0
131.04669189453125 898.0
133.06088256835938 246.0
135.04476928710938 17377.0
137.06304931640625 702.0
140.04627990722656 568.0
143.0482177734375 5553.0
145.06436157226562 8683.0
153.0738067626953 227.0
154.0772705078125 225.0
155.07179260253906 51926.0
157.06336975097656 2914.0
158.10098266601562 226.0
165.07382202148438 1537.0
166.0778350830078 427.0
167.06857299804688 1992.0
173.06005859375 6407.0
174.08802795410156 222.0
176.10655212402344 875.0
178.07864379882812 1063.0
179.0894775390625 211.0
181.04983520507812 1670.0
182.07093811035156 483.0
187.1062469482422 264.0
188.10385131835938 1512.0
189.06936645507812 2004.0
190.0760498046875 1593.0
191.08151245117188 2631.0
192.09742736816406 558.0
193.05166625976562 339.0
194.07473754882812 782.0
195.07896423339844 175.0
196.0916748046875 311.0
197.09715270996094 8146.0
199.03858947753906 315.0
201.06517028808594 1033.0
202.0792999267578 2658.0
203.08599853515625 1762.0
204.0911865234375 763.0
205.10287475585938 404.0
207.07518005371094 644.0
208.0861358642578 3403.0
209.09750366210938 5028.0
211.11538696289062 531.0
215.0917205810547 491.0
218.07395935058594 10941.0
219.08438110351562 4016.0
220.0887908935547 3860.0
221.09552001953125 2726.0
222.10452270507812 626.0
223.11373901367188 73302.0
229.0705108642578 226.0
230.07412719726562 684.0
231.07992553710938 2668.0
232.08580017089844 954.0
233.09812927246094 8507.0
234.10623168945312 3137.0
235.11434936523438 2479.0
236.0836639404297 23268.0
237.0960235595703 3674.0
245.0993194580078 3252.0
246.0691680908203 2401.0
247.0828399658203 554.0
248.09860229492188 1449.0
249.087646484375 241.0
250.11195373535156 403.0
251.1094512939453 311195.0
252.09556579589844 208.0
255.10585021972656 170.0
257.1203918457031 617.0
258.10693359375 321.0
261.0938415527344 51877.0
262.1061706542969 2013.0
263.10906982421875 13879.0
264.1435241699219 2140.0
265.088623046875 1474.0
267.1076965332031 233.0
273.1018981933594 202.0
274.0652160644531 250.0
275.1139831542969 206.0
276.13677978515625 302.0
277.0843811035156 476.0
278.1248779296875 4007.0
279.10400390625 73417.0
281.0980529785156 199.0
282.0965270996094 213.0
284.1011962890625 370.0
285.114501953125 315.0
289.0878601074219 50033.0
290.1553955078125 3236.0
291.1267395019531 3418.0
292.13568115234375 368.0
293.1439514160156 53947.0
294.1515808105469 1005.0
295.1030578613281 463.0
296.16473388671875 4390.0
298.09027099609375 1253.0
300.10223388671875 226.0
305.2047424316406 891.0
306.15179443359375 548465.0
307.100341796875 34595.0
308.0725402832031 198.0
309.11285400390625 182.0
310.1030578613281 239.0
311.0997619628906 330.0
312.117919921875 218.0
313.11041259765625 4634.0
317.1511535644531 444.0
322.1415100097656 624.0
323.10693359375 371.0
324.1622009277344 3794.0
327.1048278808594 274.0
330.1270446777344 186.0
333.11962890625 202.0
334.14752197265625 39861.0
335.10760498046875 870.0
337.106689453125 569.0
338.1355285644531 209.0
339.1039123535156 240.0
340.1047668457031 400.0
341.12261962890625 456.0
342.12384033203125 375.0
345.15191650390625 316.0
351.0745544433594 1233.0
352.1587219238281 604154.0
353.1232604980469 359.0
354.13134765625 233.0
355.13031005859375 517.0
356.1439208984375 339.0
358.11968994140625 648.0
365.1221618652344 417.0
366.123046875 704.0
367.1360778808594 555.0
368.0939636230469 200.0
369.15826416015625 313.0
371.16162109375 175.0
372.1409912109375 255.0
373.1514587402344 10366.0
379.1009521484375 858.0
381.1201477050781 180.0
382.1235046386719 542.0
383.1254577636719 918.0
387.1546630859375 2462.0
397.1450500488281 5771.0
398.1496887207031 303.0
399.16961669921875 234.0
401.1459045410156 1919.0
411.12908935546875 581.0
415.1624450683594 4745.0
425.146728515625 1505.0
443.152099609375 13313.0
456.18304443359375 327.0
470.2027587890625 10131.0
488.2102966308594 12161.0
506.221435546875 457.0

Name: Rocaglamide
Precursor_mz: 528.2003046
Cas: 84573-16-0
Adduct: [M+Na]+
Mz: 528.199273
Comment: Major
Smiles: COc1ccc([C@@]23Oc4cc(OC)cc(OC)c4[C@@]2(O)[C@H](O)[C@H](C(=O)N(C)C)[C@H]3c2ccccc2)cc1
Formula: C29H31NO7
Mix: Alkaloids-pos-mix34
Rt: [4.15]
Rt_apex: 4.155560702
Rt_start: 4.105033333
Rt_end: 4.297016667
Ms1_intensity: 214722
N_scnas: 27
Ms1_scan_range: [933, 941, 961]
Reci_snr: 0.009726302
Ms2_scan_idx: 2112
Pmz_offset: 0.001108983
Entropy: 0.9812399744987488
Num Peaks: 20
176.04139709472656 197.0
181.0536346435547 92.0
198.09140014648438 261.0
210.06459045410156 348.0
285.0908203125 1040.0
317.1436767578125 239.0
335.0973815917969 92.0
356.12542724609375 317.0
357.14044189453125 1276.0
374.1361999511719 1601.0
375.1493835449219 243.0
413.1347961425781 394.0
423.1294860839844 220.0
424.1404113769531 324.0
438.14715576171875 376.0
439.1611633300781 92.0
465.1346740722656 6585.0
482.2010498046875 276.0
510.1982116699219 22751.0
528.2068481445312 45539.0

Name: Dronedarone
Precursor_mz: 557.3066173
Cas: 141626-36-0
Adduct: [M+H]+
Mz: 557.3043702
Comment: Major
Smiles: CCCCc1oc2ccc(NS(C)(=O)=O)cc2c1C(=O)c1ccc(OCCCN(CCCC)CCCC)cc1
Formula: C31H44N2O5S
Mix: Alkaloids-pos-mix35
Rt: [4.544]
Rt_apex: 4.542619623
Rt_start: 4.4554
Rt_end: 4.956683333
Ms1_intensity: 3646785
N_scnas: 93
Ms1_scan_range: [962, 975, 1056]
Reci_snr: 6.33e-05
Ms2_scan_idx: 2392
Pmz_offset: 0.00463213
Entropy: 0.9618064761161804
Num Peaks: 70
57.0695915222168 782.0
58.06513595581055 49430.0
70.06389617919922 184.0
72.08219146728516 765.0
84.0807113647461 221.0
86.09490203857422 4933.0
98.0932846069336 168.0
100.11197662353516 294340.0
112.10990905761719 1640.0
114.12633514404297 15642.0
121.02952575683594 1317.0
126.12747192382812 386.0
128.1433563232422 9141.0
130.15760803222656 1254.0
142.15936279296875 99608.0
143.071044921875 234.0
147.0446014404297 476.0
161.05718994140625 1832.0
168.17063903808594 255.0
170.19126892089844 36471.0
173.0481719970703 265.0
174.05018615722656 191.0
186.18511962890625 252.0
214.0875244140625 779.0
215.09689331054688 2261.0
216.09832763671875 554.0
238.08346557617188 232.0
250.08193969726562 316.0
252.03424072265625 851.0
265.0713806152344 267.0
266.0845031738281 184.0
278.0767822265625 476.0
279.0839538574219 473.0
280.0953063964844 612.0
292.13671875 230.0
294.0804138183594 13712.0
305.102783203125 237.0
306.1258239746094 268.0
308.1302185058594 1524.0
309.1336364746094 1339.0
310.1411437988281 2238.0
320.1231384277344 176.0
321.1282653808594 522.0
323.14324951171875 235.0
324.16070556640625 2199.0
336.16015625 3789.0
349.1639099121094 232.0
350.1768493652344 494.0
364.1825256347656 179.0
366.196533203125 470.0
372.1311340332031 676.0
379.2030029296875 2773.0
388.1199035644531 1570.0
393.2180480957031 1447.0
421.25604248046875 1163.0
422.25323486328125 359.0
423.2573547363281 241.0
428.153564453125 849.0
435.26812744140625 118732.0
445.181884765625 188.0
449.2744445800781 293.0
477.31756591796875 294.0
479.3155822753906 249.0
501.24261474609375 12401.0
557.30908203125 1262474.0
558.5388793945312 3087.0
558.6981201171875 2871.0
559.0862426757812 886.0
559.2156982421875 273.0
559.341796875 164.0

Name: Dronedarone
Precursor_mz: 579.284161
Cas: 141626-36-0
Adduct: [M+Na]+
Mz: 579.2863144
Comment: Major
Smiles: CCCCc1oc2ccc(NS(C)(=O)=O)cc2c1C(=O)c1ccc(OCCCN(CCCC)CCCC)cc1
Formula: C31H44N2O5S
Mix: Alkaloids-pos-mix35
Rt: [4.544]
Rt_apex: 4.556165349
Rt_start: 4.502716667
Rt_end: 4.64055
Ms1_intensity: 8458
N_scnas: 20
Ms1_scan_range: [969, 977, 990]
Reci_snr: 0.014708419
Ms2_scan_idx: 2382
Pmz_offset: 0.002038407
Entropy: 0.8811481595039368
Num Peaks: 7
100.1105728149414 62.0
142.1660614013672 92.0
170.19126892089844 603.0
238.0401611328125 31.0
321.0880126953125 31.0
579.291015625 874.0
580.2810668945312 31.0

Name: Lappaconine
Precursor_mz: 424.2703524
Cas: 23943-93-3
Adduct: [M+H]+
Mz: 424.2693644
Comment: Major
Smiles: CCN1C[C@@]2(O)CC[C@@H](OC)[C@]34[C@H]5C[C@H]6[C@H](OC)[C@H]5[C@@](O)(C[C@H]6OC)[C@@H]([C@H](O)[C@H]23)[C@@H]14
Formula: C23H37NO6
Mix: Alkaloids-pos-mix35
Rt: [1.978]
Rt_apex: 1.976872824
Rt_start: 1.9109
Rt_end: 2.091716667
Ms1_intensity: 9282447
N_scnas: 27
Ms1_scan_range: [562, 573, 590]
Reci_snr: 1.69e-05
Ms2_scan_idx: 849
Pmz_offset: 0.002440767
Entropy: 0.9153997898101807
Num Peaks: 247
41.037994384765625 634.0
42.0328483581543 540.0
43.01752471923828 369.0
44.04991912841797 1866.0
45.032379150390625 275.0
46.06376647949219 739.0
47.050018310546875 291.0
53.03964614868164 207.0
56.049156188964844 1689.0
57.03261947631836 233.0
58.0641975402832 26661.0
67.05470275878906 886.0
68.04661560058594 220.0
69.06797790527344 190.0
70.06639862060547 199.0
71.04832458496094 2580.0
72.07997131347656 922.0
75.04314422607422 3469.0
77.03778839111328 1479.0
79.0536117553711 2815.0
80.04993438720703 874.0
81.03228759765625 1087.0
82.06511688232422 276.0
83.04949188232422 938.0
84.08090209960938 15000.0
87.04303741455078 385.0
88.0751724243164 1429.0
91.05268096923828 9900.0
93.0683364868164 3053.0
94.06334686279297 698.0
95.04859924316406 1341.0
96.07886505126953 1318.0
97.06490325927734 642.0
98.0962905883789 5594.0
99.04511260986328 197.0
100.07710266113281 1910.0
103.05410766601562 1002.0
105.0697250366211 16649.0
108.08161163330078 12828.0
109.0276107788086 1805.0
110.09550476074219 3265.0
112.07450103759766 9286.0
113.06314849853516 2145.0
114.089111328125 848.0
115.053466796875 1933.0
116.06118774414062 675.0
117.0687484741211 5466.0
118.0684585571289 246.0
119.08467864990234 7818.0
120.0791015625 366.0
121.10082244873047 4526.0
122.09431457519531 1472.0
123.04359436035156 1314.0
124.07626342773438 695.0
125.06145477294922 1113.0
126.08993530273438 12626.0
127.05142974853516 1196.0
128.06105041503906 5479.0
129.0698699951172 41482.0
130.07945251464844 953.0
131.08493041992188 15824.0
132.07655334472656 397.0
133.1010284423828 2156.0
134.09698486328125 1670.0
135.04444885253906 711.0
136.11146545410156 393.0
137.05943298339844 1375.0
140.10906982421875 577.0
141.0691680908203 3311.0
142.07435607910156 1181.0
143.0847930908203 4793.0
144.08197021484375 486.0
145.1029052734375 4308.0
146.09689331054688 4797.0
147.08065795898438 4004.0
148.1121368408203 1051.0
149.09751892089844 1796.0
150.12570190429688 262.0
151.07635498046875 611.0
152.10614013671875 948.0
153.0717010498047 1994.0
154.07516479492188 635.0
155.08538818359375 8133.0
156.09365844726562 474.0
157.1016845703125 9741.0
158.09707641601562 583.0
159.11683654785156 2228.0
160.11325073242188 802.0
161.09495544433594 1272.0
163.0763397216797 383.0
164.11021423339844 695.0
165.06982421875 3932.0
166.0756378173828 1784.0
167.0863037109375 5106.0
168.0927734375 690.0
169.10043334960938 2952.0
170.0690155029297 342.0
171.11376953125 3684.0
172.11386108398438 2863.0
173.09840393066406 4140.0
174.1283416748047 20398.0
175.13348388671875 2554.0
176.14337158203125 1268.0
177.1505584716797 432.0
178.08197021484375 1674.0
179.0852813720703 2822.0
180.09518432617188 758.0
181.1003875732422 10382.0
182.11215209960938 209.0
183.08306884765625 1811.0
184.0889434814453 650.0
185.0956573486328 2895.0
186.12425231933594 483.0
187.11732482910156 1281.0
188.14381408691406 786.0
189.12680053710938 628.0
190.0775146484375 870.0
191.08880615234375 2579.0
192.13975524902344 22282.0
193.10385131835938 4148.0
194.10946655273438 389.0
195.11965942382812 2811.0
196.1167449951172 466.0
197.09666442871094 1265.0
198.1244659423828 676.0
199.1133575439453 7012.0
200.14044189453125 1236.0
201.09254455566406 917.0
202.1586151123047 4070.0
203.08950805664062 1609.0
204.0906982421875 2997.0
205.10037231445312 2215.0
206.1105194091797 953.0
207.1150665283203 1944.0
208.09371948242188 616.0
209.10105895996094 2632.0
210.12710571289062 615.0
211.1128387451172 1869.0
212.1397247314453 688.0
213.12811279296875 1949.0
214.1249542236328 202.0
215.10560607910156 1108.0
216.0946807861328 686.0
217.0901641845703 712.0
218.15219116210938 353.0
219.11708068847656 7553.0
220.1715545654297 1809.0
221.1304473876953 5539.0
222.1060791015625 296.0
223.11111450195312 2135.0
224.14361572265625 342.0
225.1279754638672 1630.0
226.1630096435547 207.0
227.10948181152344 3445.0
228.14483642578125 308.0
229.101806640625 1221.0
230.15020751953125 444.0
231.13697814941406 1938.0
232.08950805664062 861.0
233.1211395263672 727.0
234.1056671142578 283.0
235.11593627929688 843.0
236.1413116455078 688.0
237.13003540039062 3170.0
238.151123046875 479.0
239.14186096191406 1724.0
241.12078857421875 3031.0
242.15481567382812 392.0
243.1472625732422 327.0
245.10751342773438 306.0
246.09718322753906 181.0
247.1087188720703 2949.0
248.13999938964844 153.0
249.12913513183594 3417.0
250.16018676757812 521.0
251.1466522216797 2002.0
252.14620971679688 177.0
253.16114807128906 850.0
254.15798950195312 528.0
255.14109802246094 969.0
256.17327880859375 286.0
259.13092041015625 3681.0
260.1688537597656 189.0
261.1317443847656 402.0
263.12890625 714.0
264.17938232421875 1171.0
265.12225341796875 1418.0
266.15606689453125 536.0
267.13916015625 1769.0
268.17462158203125 629.0
269.1522216796875 800.0
270.1454162597656 219.0
271.14739990234375 380.0
273.14764404296875 2693.0
274.1644592285156 255.0
276.1967468261719 215.0
279.1408386230469 5440.0
281.1585388183594 2198.0
282.1925048828125 989.0
283.1338806152344 209.0
284.1714782714844 582.0
285.14697265625 726.0
287.16717529296875 205.0
291.1595458984375 639.0
292.17333984375 1730.0
295.1722412109375 507.0
296.1615905761719 978.0
297.1501770019531 1452.0
298.1767578125 598.0
299.168701171875 1824.0
300.19635009765625 1032.0
302.1715087890625 202.0
303.1798400878906 198.0
304.1971740722656 970.0
306.1829833984375 267.0
310.17889404296875 3242.0
311.1757507324219 864.0
314.1783447265625 2436.0
316.19140625 773.0
317.18536376953125 405.0
318.2008972167969 250.0
324.1993103027344 4773.0
326.21124267578125 183.0
327.1954345703125 184.0
328.1912536621094 2252.0
329.1758728027344 380.0
331.19549560546875 433.0
334.197998046875 306.0
336.2149353027344 529.0
338.2224426269531 178.0
342.2112731933594 27283.0
346.2077941894531 7763.0
356.22515869140625 8628.0
360.2198791503906 16960.0
362.2362976074219 202.0
364.2154541015625 5152.0
374.2356872558594 53324.0
392.24554443359375 366616.0
422.9609680175781 5212.0
424.27227783203125 1189859.0
425.339599609375 3057.0
425.478515625 3999.0
425.59722900390625 675.0
425.82305908203125 1027.0
425.9360046386719 411.0
426.0518798828125 178.0
426.2604675292969 183.0

Name: Lappaconine
Precursor_mz: 446.246395
Cas: 23943-93-3
Adduct: [M+Na]+
Mz: 446.2513086
Comment: Major
Smiles: CCN1C[C@@]2(O)CC[C@@H](OC)[C@]34[C@H]5C[C@H]6[C@H](OC)[C@H]5[C@@](O)(C[C@H]6OC)[C@@H]([C@H](O)[C@H]23)[C@@H]14
Formula: C23H37NO6
Mix: Alkaloids-pos-mix35
Rt: [1.978]
Rt_apex: 1.974877845
Rt_start: 1.9369
Rt_end: 2.037733333
Ms1_intensity: 13572
N_scnas: 15
Ms1_scan_range: [566, 572, 582]
Reci_snr: 0.008034396
Ms2_scan_idx: 853
Pmz_offset: 0.002098124
Entropy: 1.0
Num Peaks: 4
77.03902435302734 46.0
91.05401611328125 62.0
428.24456787109375 509.0
446.2554016113281 547.0

Name: N-Methylflindersine
Precursor_mz: 242.1177586
Cas: 50333-13-6
Adduct: [M+H]+
Mz: 242.1175552
Comment: Major
Smiles: Cn1c(=O)c2c(c3ccccc31)OC(C)(C)C=C2
Formula: C15H15NO2
Mix: Alkaloids-pos-mix35
Rt: [4.411]
Rt_apex: 4.410972732
Rt_start: 4.303233333
Rt_end: 4.550383333
Ms1_intensity: 7331126
N_scnas: 36
Ms1_scan_range: [939, 955, 976]
Reci_snr: 3.26e-05
Ms2_scan_idx: 2276
Pmz_offset: 0.001678572
Entropy: 0.99739670753479
Num Peaks: 131
41.03981018066406 17481.0
43.05529022216797 10799.0
50.016883850097656 230.0
53.0396728515625 2570.0
55.0201301574707 2640.0
57.03370666503906 1943.0
65.03841400146484 4009.0
66.04728698730469 290.0
67.05473327636719 2992.0
69.03419494628906 816.0
71.05191040039062 339.0
77.0390625 29105.0
78.04744720458984 931.0
79.05489349365234 24644.0
81.07149505615234 35644.0
83.01244354248047 710.0
89.03662109375 3689.0
90.04450988769531 1295.0
91.05540466308594 18821.0
92.0503921508789 772.0
93.03048706054688 1571.0
95.05001068115234 1067.0
97.06771850585938 573.0
101.03971862792969 854.0
102.0479965209961 2572.0
103.05415344238281 8348.0
104.0480728149414 1664.0
105.03382110595703 1039.0
106.06612396240234 81301.0
107.04974365234375 2056.0
108.0816650390625 154.0
109.0657730102539 10057.0
113.037841796875 228.0
114.05020141601562 975.0
115.05352783203125 22007.0
116.05217742919922 8977.0
117.05970001220703 20487.0
118.0669937133789 11667.0
119.03573608398438 1261.0
120.08069610595703 996.0
126.04430389404297 367.0
127.05624389648438 6017.0
128.0547637939453 16419.0
129.0635528564453 11591.0
130.06671142578125 9496.0
131.07054138183594 3902.0
132.079833984375 10362.0
133.0541534423828 283.0
134.06129455566406 149088.0
135.0445098876953 3001.0
139.05465698242188 1016.0
140.04934692382812 2921.0
141.06590270996094 2780.0
142.06607055664062 6921.0
143.07479858398438 18971.0
144.08204650878906 155761.0
145.05226135253906 1828.0
146.06134033203125 47382.0
147.06881713867188 1645.0
148.0763397216797 250.0
151.05227661132812 398.0
152.06295776367188 2854.0
153.07177734375 1562.0
154.06478881835938 9870.0
155.0732421875 2923.0
156.0814666748047 8799.0
157.08944702148438 6921.0
158.0953826904297 6966.0
159.07974243164062 1986.0
160.07781982421875 28691.0
162.0583038330078 32935.0
163.06565856933594 736.0
164.0653533935547 1389.0
165.07171630859375 4697.0
166.0648651123047 5687.0
167.0773162841797 5031.0
168.08193969726562 3487.0
169.05490112304688 5163.0
170.0672607421875 5742.0
171.10467529296875 4353.0
172.0789794921875 99872.0
173.08187866210938 1335.0
174.0562286376953 1343.0
176.07269287109375 8011.0
178.07269287109375 991.0
179.0816192626953 1434.0
180.08209228515625 20174.0
181.09292602539062 19374.0
182.0989990234375 2853.0
183.0698699951172 4820.0
184.07760620117188 51985.0
185.0480194091797 33692.0
186.09371948242188 8651.0
187.10012817382812 568.0
188.07461547851562 180642.0
191.07339477539062 2315.0
192.08538818359375 596.0
193.06494140625 486.0
194.09588623046875 1941.0
195.1060333251953 550.0
196.11488342285156 14896.0
197.08494567871094 1122.0
198.08901977539062 14220.0
199.06593322753906 3653.0
200.07899475097656 260157.0
201.07870483398438 282.0
202.08889770507812 3396.0
204.07876586914062 229.0
205.09645080566406 361.0
206.09852600097656 1929.0
207.10507202148438 388.0
208.07763671875 7702.0
209.08493041992188 32311.0
210.09466552734375 1036.0
211.06605529785156 4207.0
212.0744171142578 132807.0
213.08314514160156 10570.0
214.12301635742188 25832.0
222.0978240966797 606.0
223.1049346923828 364.0
224.11221313476562 72741.0
225.0838623046875 336.0
226.08926391601562 84396.0
227.09902954101562 68800.0
240.10433959960938 845.0
241.38902282714844 1367.0
242.12217712402344 419405.0
242.9242401123047 661.0
243.1014404296875 573.0
243.2962188720703 269.0
244.0651397705078 154.0

Name: N-Methylflindersine
Precursor_mz: 264.0987549
Cas: 50333-13-6
Adduct: [M+Na]+
Mz: 264.0994994
Comment: Major
Smiles: Cn1c(=O)c2c(c3ccccc31)OC(C)(C)C=C2
Formula: C15H15NO2
Mix: Alkaloids-pos-mix35
Rt: [4.411]
Rt_apex: 4.413702067
Rt_start: 4.3644
Rt_end: 4.47505
Ms1_intensity: 153362
N_scnas: 16
Ms1_scan_range: [948, 956, 965]
Reci_snr: 0.001491356
Ms2_scan_idx: 2283
Pmz_offset: 0.000314503
Entropy: 1.0
Num Peaks: 2
201.03890991210938 62.0
264.1019592285156 92.0

Name: Castanospermine
Precursor_mz: 190.1075231
Cas: 79831-76-8
Adduct: [M+H]+
Mz: 190.1073844
Comment: Major
Smiles: O[C@H]1CN2CC[C@H](O)[C@@H]2[C@@H](O)[C@@H]1O
Formula: C8H15NO4
Mix: Alkaloids-pos-mix35
Rt: [0.27]
Rt_apex: 0.267116298
Rt_start: 0.224666667
Rt_end: 0.540383333
Ms1_intensity: 688850
N_scnas: 77
Ms1_scan_range: [86, 92, 164]
Reci_snr: 0.000965129
Ms2_scan_idx: 131
Pmz_offset: 0.001934843
Entropy: 0.9981036186218262
Num Peaks: 50
41.038002014160156 2914.0
42.03285598754883 1841.0
43.01753234863281 874.0
44.048065185546875 6941.0
45.035213470458984 369.0
53.0376091003418 502.0
55.05342483520508 498.0
56.05021667480469 2425.0
57.03157043457031 1023.0
58.065277099609375 1908.0
65.0372543334961 276.0
67.05126953125 408.0
68.04779052734375 2303.0
69.0318374633789 5378.0
70.06523895263672 2478.0
71.04715728759766 791.0
72.04424285888672 3631.0
77.04026794433594 123.0
78.03501892089844 154.0
79.04988098144531 310.0
80.04869079589844 3278.0
81.03230285644531 298.0
82.06385803222656 2835.0
83.07124328613281 585.0
84.08091735839844 4652.0
86.05865478515625 8233.0
87.04174041748047 656.0
93.053466796875 486.0
94.06608581542969 1001.0
95.04861450195312 1172.0
96.08438110351562 207.0
98.06017303466797 2366.0
99.0688705444336 264.0
100.07571411132812 2767.0
102.05079650878906 154.0
106.06175231933594 1465.0
107.07293701171875 154.0
108.0787124633789 3283.0
110.06018829345703 1208.0
112.07601165771484 12576.0
116.07179260253906 511.0
117.05662536621094 248.0
118.06391143798828 1246.0
124.07003784179688 364.0
126.0915298461914 1020.0
128.0706024169922 1065.0
136.0771026611328 6046.0
154.0856475830078 8594.0
172.09732055664062 20097.0
190.10658264160156 6357.0

Name: Lansoprazole sodium
Precursor_mz: 370.0838024
Cas: 226904-00-3
Adduct: [M+H]+
Mz: 370.0831588
Comment: Major
Smiles: Cc1c(OCC(F)(F)F)ccnc1CS(=O)c1nc2ccccc2[nH]1
Formula: C16H14F3N3O2S
Mix: Alkaloids-pos-mix35
Rt: [3.074]
Rt_apex: 3.070883915
Rt_start: 3.016333333
Rt_end: 3.273166667
Ms1_intensity: 2011813
N_scnas: 40
Ms1_scan_range: [736, 744, 777]
Reci_snr: 0.000126965
Ms2_scan_idx: 1565
Pmz_offset: 0.001288704
Entropy: 0.9973583221435547
Num Peaks: 62
65.03620910644531 837.0
66.0450668334961 663.0
77.03666687011719 797.0
78.03388214111328 255.0
79.05372619628906 1468.0
80.04753875732422 1165.0
81.05767059326172 396.0
92.04913330078125 7589.0
93.05493927001953 1339.0
94.06348419189453 1175.0
94.9953842163086 187.0
96.0006103515625 722.0
97.0111312866211 228.0
105.04542541503906 310.0
106.06477355957031 22661.0
107.07307434082031 141481.0
108.08030700683594 19358.0
109.04975128173828 1703.0
110.00733184814453 336.0
118.06405639648438 1260.0
119.06034851074219 394191.0
120.04698181152344 603.0
121.05158996582031 1217.0
122.06037902832031 7816.0
123.01264190673828 3294.0
124.02330017089844 239.0
134.0061798095703 940.0
135.0658416748047 561.0
136.0756378173828 374843.0
137.061279296875 1782.0
149.01548767089844 7684.0
151.00930786132812 44711.0
152.01637268066406 14937.0
153.02157592773438 201.0
165.0574493408203 600.0
166.01800537109375 242.0
170.04547119140625 1075.0
176.030029296875 329.0
183.0947265625 388.0
184.054931640625 411.0
185.0653839111328 5571.0
190.04876708984375 12525.0
192.06417846679688 757.0
204.06292724609375 92867.0
205.0705108642578 117701.0
208.06568908691406 456.0
210.017578125 1296.0
211.09072875976562 432.0
214.01234436035156 188.0
220.05943298339844 34376.0
222.07713317871094 5168.0
234.02012634277344 384493.0
235.02806091308594 66466.0
236.07911682128906 683.0
252.0307159423828 393004.0
268.0555114746094 382.0
269.0605163574219 388.0
293.0908203125 444.0
294.0959167480469 222.0
318.0837097167969 278.0
352.0741271972656 1776.0
370.0805969238281 184.0

Name: Lansoprazole sodium
Precursor_mz: 392.0651727
Cas: 226904-00-3
Adduct: [M+Na]+
Mz: 392.0651031
Comment: Major
Smiles: Cc1c(OCC(F)(F)F)ccnc1CS(=O)c1nc2ccccc2[nH]1
Formula: C16H14F3N3O2S
Mix: Alkaloids-pos-mix35
Rt: [3.074]
Rt_apex: 3.062387886
Rt_start: 3.0025
Rt_end: 3.324816667
Ms1_intensity: 148598
N_scnas: 50
Ms1_scan_range: [734, 743, 785]
Reci_snr: 0.001450268
Ms2_scan_idx: 1570
Pmz_offset: 0.001082629
Entropy: 1.0
Num Peaks: 6
149.02218627929688 123.0
187.99954223632812 2470.0
244.05853271484375 214.0
274.0135498046875 1469.0
374.05938720703125 154.0
392.0678405761719 3033.0

Name: hydrocotarnine
Precursor_mz: 222.1125441
Cas: 550-10-7
Adduct: [M+H]+
Mz: 222.1124698
Comment: Major
Smiles: COc1c2c(cc3c1OCO3)CCN(C)C2
Formula: C12H15NO3
Mix: Alkaloids-pos-mix35
Rt: [1.9]
Rt_apex: 1.90407238
Rt_start: 1.8569
Rt_end: 2.431866667
Ms1_intensity: 1770911
N_scnas: 90
Ms1_scan_range: [554, 561, 645]
Reci_snr: 8.19e-05
Ms2_scan_idx: 796
Pmz_offset: 0.001244019
Entropy: 0.9987191557884216
Num Peaks: 65
42.03375244140625 3395.0
44.04991149902344 139248.0
45.0333137512207 92.0
53.039634704589844 123.0
55.01801300048828 208.0
56.053348541259766 92.0
65.03723907470703 1105.0
67.05354309082031 200.0
77.03900909423828 9887.0
78.04491424560547 1160.0
79.05484771728516 2147.0
81.06890869140625 250.0
83.04947662353516 123.0
89.0392074584961 496.0
90.0497817993164 504.0
91.05534362792969 16242.0
92.06110382080078 210.0
93.0723876953125 5739.0
94.06605529785156 254.0
95.05131530761719 258.0
102.04792785644531 92.0
103.05266571044922 2339.0
105.06970977783203 2631.0
106.06460571289062 627.0
107.0482177734375 949.0
108.05679321289062 807.0
115.05345153808594 871.0
117.05657958984375 1185.0
118.04100036621094 703.0
119.04790496826172 791.0
120.07908630371094 800.0
121.06683349609375 4710.0
123.07782745361328 609.0
130.0602264404297 232.0
131.04635620117188 392.0
132.0845947265625 1518.0
133.07025146484375 2314.0
134.06283569335938 1324.0
135.08030700683594 5023.0
136.05413818359375 447.0
146.057861328125 318.0
147.04319763183594 698.0
148.05575561523438 1176.0
149.06494140625 3298.0
150.06723022460938 343.0
151.07977294921875 716.0
160.07948303222656 1662.0
161.05397033691406 672.0
162.05284118652344 489.0
163.07630920410156 1056.0
164.10479736328125 2863.0
165.06077575683594 3184.0
166.0629425048828 779.0
175.07774353027344 279.0
176.07630920410156 384.0
177.07769775390625 750.0
178.06507873535156 1241.0
179.07211303710938 38679.0
190.0832977294922 170.0
191.08102416992188 1471.0
192.098876953125 1608.0
193.08822631835938 17984.0
205.09230041503906 326.0
207.0928192138672 1182.0
222.1165008544922 23433.0

Name: 1-piperoylpiperidine
Precursor_mz: 286.1442217
Cas: 7780-20-3
Adduct: [M+H]+
Mz: 286.1437699
Comment: Major
Smiles: O=C(C=CC=Cc1ccc2c(c1)OCO2)N1CCCCC1
Formula: C17H19NO3
Mix: Alkaloids-pos-mix35
Rt: [4.357, 4.454]
Rt_apex: 4.356108185
Rt_start: 4.289233333
Rt_end: 4.4229
Ms1_intensity: 4714492
N_scnas: 19
Ms1_scan_range: [937, 947, 957]
Reci_snr: 0.000123017
Ms2_scan_idx: 2209
Pmz_offset: 0.002299805
Entropy: 0.9916716814041138
Num Peaks: 62
41.03966522216797 16515.0
51.02313232421875 645.0
55.01889419555664 910.0
56.0521354675293 205.0
65.03591918945312 231.0
67.05449676513672 359.0
69.0712661743164 22725.0
70.0661849975586 530.0
77.03878784179688 8640.0
79.05586242675781 4007.0
80.0484390258789 815.0
81.05730438232422 2644.0
84.08321380615234 6065.0
86.09613800048828 6647.0
87.0218276977539 92.0
89.04027557373047 6410.0
91.05775451660156 1440.0
94.06578063964844 621.0
95.07566833496094 207.0
102.0490493774414 205.0
103.05521392822266 8914.0
105.033447265625 4066.0
107.05081176757812 434.0
108.07981872558594 177.0
109.05219268798828 615.0
112.07862091064453 11020.0
114.04830169677734 273.0
115.0561294555664 575957.0
116.06234741210938 369.0
117.07142639160156 6082.0
122.09859466552734 2462.0
126.0517349243164 92.0
127.05420684814453 5031.0
128.06224060058594 343.0
129.0742645263672 646.0
131.0491943359375 1690.0
134.0981903076172 1711.0
135.04566955566406 195187.0
136.07339477539062 277.0
142.07894897460938 210.0
143.05079650878906 191513.0
144.0529022216797 387.0
145.0652618408203 1545.0
150.09259033203125 2664.0
151.10003662109375 7481.0
155.06045532226562 476.0
157.10296630859375 611.0
159.04554748535156 23286.0
161.0606231689453 403.0
171.0471649169922 89782.0
172.05259704589844 792.0
173.0609588623047 25649.0
175.07723999023438 202.0
185.09890747070312 1082.0
201.05809020996094 436423.0
202.13006591796875 160.0
215.10494995117188 921.0
218.1162872314453 632.0
232.1422576904297 208.0
258.1551208496094 496.0
285.28118896484375 92.0
286.1493835449219 40742.0

Name: 1-piperoylpiperidine
Precursor_mz: 308.1266525
Cas: 7780-20-3
Adduct: [M+Na]+
Mz: 308.1257142
Comment: Major
Smiles: O=C(C=CC=Cc1ccc2c(c1)OCO2)N1CCCCC1
Formula: C17H19NO3
Mix: Alkaloids-pos-mix35
Rt: [4.357, 4.454]
Rt_apex: 4.346165754
Rt_start: 4.303233333
Rt_end: 4.4229
Ms1_intensity: 154660
N_scnas: 17
Ms1_scan_range: [939, 945, 957]
Reci_snr: 0.000840027
Ms2_scan_idx: 2228
Pmz_offset: 0.000631115
Entropy: nan
Num Peaks: 1
308.1307678222656 355.0

Name: N-Noratherosperminine hydrochloride
Precursor_mz: 296.1653207
Cas: TN6787L
Adduct: [M+H]+
Mz: 296.1645054
Comment: Major
Smiles: CNCCc1cc(OC)c(OC)c2c1ccc1ccccc12
Formula: C19H21NO2
Mix: Alkaloids-pos-mix35
Rt: [3.344]
Rt_apex: 3.345945206
Rt_start: 3.2968
Rt_end: 3.803766667
Ms1_intensity: 2146818
N_scnas: 77
Ms1_scan_range: [781, 788, 859]
Reci_snr: 0.000118981
Ms2_scan_idx: 1737
Pmz_offset: 0.001041749
Entropy: 0.9964170455932617
Num Peaks: 68
55.01911544799805 336.0
85.02815246582031 249.0
115.05508422851562 314.0
127.0562973022461 198.0
128.06275939941406 1362.0
141.06764221191406 270.0
151.0540771484375 525.0
152.06301879882812 1132.0
153.06838989257812 377.0
163.05319213867188 398.0
164.0618438720703 505.0
165.07179260253906 8290.0
166.07579040527344 363.0
167.08465576171875 525.0
175.0556640625 93.0
176.06532287597656 1388.0
177.0704345703125 2468.0
178.08026123046875 44019.0
179.08546447753906 67413.0
180.0972442626953 432.0
181.06655883789062 592.0
183.07945251464844 93.0
187.0541534423828 199.0
188.0612335205078 311.0
189.07101440429688 38237.0
190.07769775390625 22912.0
191.08705139160156 85622.0
192.09130859375 2371.0
193.10403442382812 4375.0
194.10574340820312 1078.0
195.0806427001953 981.0
200.06520080566406 203.0
201.0708465576172 3283.0
202.07901000976562 18497.0
203.08770751953125 41776.0
204.0948944091797 4463.0
205.0985565185547 6970.0
206.0724334716797 3188.0
207.0829620361328 63749.0
208.08380126953125 1331.0
209.0972137451172 252.0
213.072998046875 233.0
214.0758819580078 591.0
215.08729553222656 3559.0
216.09283447265625 154.0
217.06764221191406 13969.0
218.07363891601562 27732.0
219.0819854736328 67580.0
220.08639526367188 3214.0
221.08058166503906 21924.0
222.10629272460938 6869.0
223.07569885253906 327.0
229.07229614257812 288.0
231.07958984375 5301.0
232.0918731689453 2267.0
233.09779357910156 19207.0
234.10589599609375 167238.0
235.07742309570312 291695.0
236.08547973632812 13487.0
237.09568786621094 1857.0
238.0972137451172 508.0
239.10520935058594 93.0
247.0780792236328 277.0
249.0961456298828 13935.0
250.10049438476562 200233.0
253.1189727783203 260.0
265.1247863769531 228493.0
296.16912841796875 1403.0

Name: Corysamine chloride
Precursor_mz: 334.106029
Cas: 11028-77-6
Adduct: [M]+
Mz: 334.1073844
Comment: Major
Smiles: Cc1c2[n+](cc3c4c(ccc13)OCO4)CCc1cc3c(cc1-2)OCO3
Formula: C20H16NO4+
Mix: Alkaloids-pos-mix36
Rt: [2.65]
Rt_apex: 2.864108777
Rt_start: 2.7236
Rt_end: 3.024283333
Ms1_intensity: 4570
N_scnas: 57
Ms1_scan_range: [719, 744, 777]
Reci_snr: 0.021810929
Ms2_scan_idx: 1257
Pmz_offset: 0.001093279
Entropy: 0.874574601650238
Num Peaks: 6
262.1007385253906 46.0
263.0922546386719 46.0
276.10321044921875 62.0
291.0898742675781 62.0
304.1112976074219 46.0
334.10284423828125 555.0

Name: O-Desmethyl Galanthamine
Precursor_mz: 274.1435774
Cas: 60755-80-8
Adduct: [M+H]+
Mz: 274.1437699
Comment: Major
Smiles: CN1CC[C@@]23C=C[C@H](O)C[C@@H]2Oc2c(O)ccc(c23)C1
Formula: C16H19NO3
Mix: Alkaloids-pos-mix36
Rt: [0.614]
Rt_apex: 0.608040492
Rt_start: 0.45995
Rt_end: 0.972783333
Ms1_intensity: 558881
N_scnas: 157
Ms1_scan_range: [147, 176, 305]
Reci_snr: 0.001331397
Ms2_scan_idx: 263
Pmz_offset: 0.000837167
Entropy: 0.9912616610527039
Num Peaks: 78
41.03776550292969 108.0
43.01637268066406 342.0
55.01671600341797 2477.0
58.063926696777344 1312.0
77.03748321533203 331.0
91.05368041992188 653.0
93.0693588256836 133.0
95.04962158203125 151.0
102.04617309570312 341.0
103.05517578125 212.0
105.06936645507812 473.0
107.0478744506836 195.0
115.05459594726562 742.0
117.06684875488281 118.0
119.08428955078125 310.0
121.06492614746094 680.0
123.0416488647461 374.0
127.05261993408203 622.0
128.06065368652344 5137.0
129.07106018066406 409.0
131.0491943359375 267.0
132.0809783935547 396.0
133.08929443359375 296.0
134.09820556640625 275.0
137.05738830566406 151.0
141.06707763671875 579.0
143.0860595703125 1676.0
145.0602264404297 307.0
146.07102966308594 311.0
147.0785369873047 649.0
148.04852294921875 160.0
149.05596923828125 92.0
151.05694580078125 205.0
152.0607147216797 1570.0
153.0695343017578 1896.0
154.07821655273438 311.0
155.0832061767578 530.0
156.05465698242188 593.0
157.06431579589844 211.0
159.07568359375 111.0
161.0624542236328 1403.0
165.0693817138672 789.0
166.07879638671875 582.0
167.0858612060547 321.0
169.06712341308594 159.0
171.0821075439453 3408.0
173.05548095703125 174.0
174.06863403320312 164.0
175.07545471191406 434.0
177.06605529785156 89.0
178.0758819580078 471.0
179.08482360839844 1768.0
181.06591796875 5424.0
182.07191467285156 1207.0
184.0522918701172 26229.0
187.07461547851562 122.0
189.0896453857422 1560.0
190.08477783203125 120.0
191.08445739746094 236.0
194.07183837890625 301.0
195.0780029296875 87.0
197.09814453125 1268.0
198.062744140625 497.0
199.0772247314453 40657.0
200.0426788330078 250.0
201.08607482910156 107.0
207.07821655273438 448.0
210.06761169433594 820.0
213.0968780517578 239.0
215.07217407226562 211.0
217.0855255126953 3257.0
225.08953857421875 1806.0
228.07437133789062 94.0
240.10150146484375 98.0
241.11154174804688 266.0
243.0963897705078 104.0
256.1322937011719 1152.0
274.1476135253906 3179.0

Name: N-Caffeoyl O-methyltyramine
Precursor_mz: 314.1399263
Cas: 189307-47-9
Adduct: [M+H]+
Mz: 314.1386845
Comment: Major
Smiles: COc1ccc(CCNC(=O)/C=C/c2ccc(O)c(O)c2)cc1
Formula: C18H19NO4
Mix: Alkaloids-pos-mix36
Rt: [3.295]
Rt_apex: 3.295341718
Rt_start: 3.242833333
Rt_end: 3.892516667
Ms1_intensity: 1296987
N_scnas: 130
Ms1_scan_range: [816, 824, 947]
Reci_snr: 0.000134942
Ms2_scan_idx: 1481
Pmz_offset: 0.001299388
Entropy: 0.9982770681381226
Num Peaks: 23
51.02200698852539 92.0
63.02355194091797 239.0
77.03743743896484 6040.0
79.05325317382812 10763.0
89.0388412475586 20268.0
91.05229187011719 2142.0
92.06208038330078 387.0
95.05094146728516 92.0
102.04753112792969 154.0
103.05369567871094 13076.0
105.06930541992188 36711.0
107.04781341552734 3257.0
115.05905151367188 195.0
117.03338623046875 25274.0
119.04747772216797 611.0
120.05712127685547 5691.0
133.06979370117188 92.0
135.07984924316406 35509.0
145.0280303955078 24756.0
152.112548828125 452.0
163.0399627685547 70505.0
206.07766723632812 154.0
314.1452331542969 521.0

Name: N-Caffeoyl O-methyltyramine
Precursor_mz: 314.138301
Cas: 189307-47-9
Adduct: [M+H]+
Mz: 314.1386845
Comment: isomer
Smiles: COc1ccc(CCNC(=O)/C=C/c2ccc(O)c(O)c2)cc1
Formula: C18H19NO4
Mix: Alkaloids-pos-mix36
Rt: [3.295]
Rt_apex: 3.181502036
Rt_start: 3.144233333
Rt_end: 3.242833333
Ms1_intensity: 41081
N_scnas: 17
Ms1_scan_range: [798, 805, 816]
Reci_snr: 0.002490157
Ms2_scan_idx: 1389
Pmz_offset: 0.000325897
Entropy: 0.9999998807907104
Num Peaks: 14
77.03885650634766 399.0
79.0546875 675.0
89.04037475585938 1304.0
91.0511703491211 176.0
103.05393981933594 987.0
105.0695571899414 2339.0
107.04661560058594 209.0
117.0351791381836 1627.0
119.04622650146484 123.0
120.05741119384766 579.0
135.0834197998047 2065.0
145.03005981445312 1640.0
163.04393005371094 2569.0
314.1534423828125 93.0

Name: N-Caffeoyl O-methyltyramine
Precursor_mz: 336.1209178
Cas: 189307-47-9
Adduct: [M+Na]+
Mz: 336.1206288
Comment: Major
Smiles: COc1ccc(CCNC(=O)/C=C/c2ccc(O)c(O)c2)cc1
Formula: C18H19NO4
Mix: Alkaloids-pos-mix36
Rt: [3.295]
Rt_apex: 3.302537031
Rt_start: 3.242833333
Rt_end: 3.683366667
Ms1_intensity: 106588
N_scnas: 86
Ms1_scan_range: [816, 825, 903]
Reci_snr: 0.002360836
Ms2_scan_idx: 1458
Pmz_offset: 0.000401465
Entropy: 0.9999999403953552
Num Peaks: 4
97.05622863769531 31.0
173.08680725097656 31.0
291.08941650390625 31.0
336.1318359375 399.0

Name: HHQ
Precursor_mz: 244.1704834
Cas: 40522-46-1
Adduct: [M+H]+
Mz: 244.1695908
Comment: Major
Smiles: CCCCCCCc1cc(=O)c2ccccc2[nH]1
Formula: C16H21NO
Mix: Alkaloids-pos-mix36
Rt: [3.904]
Rt_apex: 3.904606332
Rt_start: 3.854183333
Rt_end: 5.759533333
Ms1_intensity: 18019875
N_scnas: 442
Ms1_scan_range: [939, 949, 1382]
Reci_snr: 7.39e-05
Ms2_scan_idx: 1723
Pmz_offset: 0.002028795
Entropy: 0.9940317869186401
Num Peaks: 84
40.017520904541016 803.0
41.03955078125 2763.0
43.05410385131836 2913.0
51.025020599365234 428.0
54.03537368774414 465.0
55.05625915527344 182.0
57.0683708190918 795.0
65.03807067871094 2387.0
67.01876831054688 2308.0
68.0138931274414 40343.0
77.03868865966797 8499.0
78.04830169677734 1155.0
89.03885650634766 8938.0
90.04676818847656 1989.0
91.05364990234375 15522.0
92.05535888671875 26946.0
93.05713653564453 7100.0
101.0378646850586 581.0
102.04613494873047 594.0
103.0537109375 11152.0
104.05049133300781 2328.0
105.03337097167969 9384.0
106.06566619873047 984.0
114.0467300415039 336.0
115.05606079101562 4371.0
116.05018615722656 16909.0
117.06072998046875 8296.0
118.06346130371094 9526.0
119.03678131103516 577.0
120.04484558105469 96830.0
127.05573272705078 1594.0
128.0494842529297 3329.0
129.05667114257812 545.0
130.0662078857422 517796.0
131.0700225830078 10605.0
132.0809326171875 5435.0
140.04881286621094 555.0
141.05703735351562 694.0
142.06719970703125 1258.0
143.0742645263672 5294.0
144.04612731933594 32251.0
145.05340576171875 35926.0
146.0625 14029.0
154.06422424316406 601.0
156.077392578125 310.0
158.061279296875 195079.0
159.0703125 1217944.0
160.07723999023438 22359.0
161.1051483154297 213.0
162.05772399902344 1040.0
164.11329650878906 167.0
168.08316040039062 330.0
170.06483459472656 268.0
172.07652282714844 926746.0
173.0849609375 47101.0
174.09634399414062 5473.0
177.03985595703125 210.0
183.06924438476562 257.0
184.0769805908203 1280.0
185.08938598632812 314.0
186.09307861328125 22917.0
188.106689453125 1676.0
198.10020446777344 368.0
200.1061248779297 4014.0
202.12612915039062 290.0
214.12437438964844 1234.0
228.14422607421875 390.0
242.15635681152344 918.0
243.42681884765625 12318.0
244.17620849609375 884688.0
245.08929443359375 3483.0
245.34861755371094 1451.0
245.5157012939453 361.0
245.7620391845703 838.0
245.9336700439453 176.0
246.0987548828125 351.0
246.26829528808594 228.0
246.50399780273438 321.0
246.6802978515625 258.0
246.9206085205078 230.0
247.0970458984375 198.0
247.56494140625 178.0
247.75486755371094 181.0
247.9890594482422 174.0

Name: Lirinidine
Precursor_mz: 282.1490822
Cas: 54383-28-7
Adduct: [M+H]+
Mz: 282.1488553
Comment: Major
Smiles: COc1cc2c3c(c1O)-c1ccccc1C[C@@H]3N(C)CC2
Formula: C18H19NO2
Mix: Alkaloids-pos-mix36
Rt: [2.562]
Rt_apex: 2.561136412
Rt_start: 2.516783333
Rt_end: 2.622766667
Ms1_intensity: 2994181
N_scnas: 15
Ms1_scan_range: [688, 695, 704]
Reci_snr: 0.00017059
Ms2_scan_idx: 1087
Pmz_offset: 0.002193507
Entropy: 0.9929878115653992
Num Peaks: 61
41.03691864013672 181.0
43.015506744384766 369.0
44.04787826538086 3456.0
45.03408432006836 463.0
58.06507110595703 183.0
71.0481185913086 254.0
95.04974365234375 495.0
115.05323791503906 717.0
127.05278015136719 775.0
128.05763244628906 707.0
139.05104064941406 476.0
141.0706024169922 2343.0
151.055419921875 538.0
152.0609130859375 2755.0
153.06973266601562 1426.0
155.05545043945312 709.0
163.05279541015625 565.0
164.05784606933594 772.0
165.07138061523438 60412.0
166.07901000976562 3659.0
167.08425903320312 2522.0
175.05154418945312 367.0
176.06304931640625 1890.0
177.07188415527344 6741.0
178.07797241210938 22422.0
179.08505249023438 35579.0
180.0930633544922 17911.0
181.06614685058594 2702.0
187.05564880371094 448.0
188.0588836669922 318.0
189.0706024169922 85865.0
190.07920837402344 142445.0
191.08663940429688 523722.0
192.0947723388672 1950.0
193.06655883789062 3670.0
194.07208251953125 12111.0
195.0782470703125 6077.0
199.0596466064453 262.0
200.06277465820312 13617.0
201.07040405273438 226227.0
202.07858276367188 7301.0
203.08526611328125 4848.0
204.0924530029297 1184.0
205.10214233398438 2737.0
206.0699920654297 316.0
207.08050537109375 15410.0
208.0894317626953 53047.0
215.0847930908203 200.0
217.06512451171875 3819.0
218.0731964111328 19824.0
219.08152770996094 381071.0
220.09219360351562 1539.0
221.09683227539062 2419.0
222.10585021972656 367.0
223.11087036132812 2893.0
233.09518432617188 286.0
236.08285522460938 65955.0
250.1244354248047 202.0
251.10861206054688 468991.0
252.1504364013672 192.0
282.1474914550781 6208.0

Name: DL-Tyrosine
Precursor_mz: 182.0807016
Cas: 556-03-6
Adduct: [M+H]+
Mz: 182.0811697
Comment: Major
Smiles: NC(Cc1ccc(O)cc1)C(=O)O
Formula: C9H11NO3
Mix: Alkaloids-pos-mix36
Rt: [0.348, 0.497]
Rt_apex: 0.348035527
Rt_start: 0.323116667
Rt_end: 0.449416667
Ms1_intensity: 1815233
N_scnas: 33
Ms1_scan_range: [109, 114, 143]
Reci_snr: 0.003400883
Ms2_scan_idx: 164
Pmz_offset: 0.00014439
Entropy: 0.999027669429779
Num Peaks: 42
41.03775405883789 1802.0
42.03351593017578 483.0
43.016361236572266 722.0
50.01361846923828 324.0
51.02201843261719 5938.0
53.03732681274414 285.0
55.01878356933594 512.0
63.02245330810547 385.0
65.0392074584961 20948.0
66.04580688476562 204.0
67.0532455444336 1570.0
77.03868865966797 45211.0
79.0520248413086 1415.0
80.04959869384766 318.0
81.06732177734375 633.0
89.03886413574219 378.0
90.04410552978516 235.0
91.05365753173828 248652.0
92.04728698730469 154.0
93.05714416503906 652.0
94.03712463378906 1163.0
95.04822540283203 56978.0
101.03646087646484 408.0
102.0418930053711 246.0
103.05087280273438 2081.0
105.04344177246094 637.0
107.04784393310547 21660.0
108.07975769042969 288.0
109.06531524658203 2400.0
116.0486831665039 93.0
117.05619049072266 1717.0
118.06499481201172 3993.0
119.04904174804688 64894.0
120.0571517944336 271.0
121.0587158203125 499.0
123.04473114013672 45232.0
134.0591583251953 250.0
135.06846618652344 451.0
136.0749969482422 41971.0
137.06227111816406 362.0
147.04275512695312 3141.0
165.05130004882812 705.0

Name: DL-Tyrosine
Precursor_mz: 182.0807016
Cas: 556-03-6
Adduct: [M+H]+
Mz: 182.0811697
Comment: isomer
Smiles: NC(Cc1ccc(O)cc1)C(=O)O
Formula: C9H11NO3
Mix: Alkaloids-pos-mix36
Rt: [0.348, 0.497]
Rt_apex: 0.495458322
Rt_start: 0.449416667
Rt_end: 0.667116667
Ms1_intensity: 1262164
N_scnas: 48
Ms1_scan_range: [143, 156, 192]
Reci_snr: 0.003392379
Ms2_scan_idx: 230
Pmz_offset: 0.00014439
Entropy: 0.997985303401947
Num Peaks: 51
41.03775405883789 2355.0
42.034427642822266 1234.0
43.01728057861328 1441.0
44.997291564941406 92.0
50.015602111816406 911.0
51.02201843261719 13522.0
53.03834915161133 586.0
55.016700744628906 1469.0
62.013832092285156 123.0
63.021339416503906 791.0
65.03807830810547 55549.0
66.04238891601562 409.0
67.0532455444336 2682.0
68.04747009277344 154.0
74.0118408203125 123.0
75.02093505859375 535.0
77.03868865966797 123855.0
78.04459381103516 164.0
79.05327606201172 3598.0
80.04708862304688 316.0
81.0698471069336 1259.0
89.03753662109375 1119.0
90.04544067382812 626.0
91.05365753173828 587915.0
92.05402374267578 245.0
93.06797790527344 1487.0
94.03984069824219 3024.0
95.04822540283203 110075.0
101.03787231445312 745.0
102.04472351074219 351.0
103.05371856689453 4169.0
105.04344177246094 1290.0
106.065673828125 510.0
107.0492935180664 53709.0
108.08267211914062 927.0
109.06238555908203 4029.0
111.0409927368164 92.0
116.0501937866211 154.0
117.05770874023438 3484.0
118.06499481201172 6361.0
119.04904174804688 121649.0
120.0540771484375 793.0
121.06334686279297 1194.0
123.04473114013672 87101.0
134.060791015625 464.0
135.06520080566406 563.0
136.0749969482422 87630.0
137.05899047851562 847.0
147.0410614013672 8129.0
165.0531005859375 3013.0
182.07565307617188 123.0

Name: Viquidil hydrochloride
Precursor_mz: 325.1899217
Cas: 52211-63-9
Adduct: [M+H]+
Mz: 325.1910545
Comment: Major
Smiles: C=C[C@H]1CNCC[C@H]1CCC(=O)c1ccnc2ccc(OC)cc12
Formula: C20H24N2O2
Mix: Alkaloids-pos-mix36
Rt: [2.65]
Rt_apex: 2.64521548
Rt_start: 2.557266667
Rt_end: 3.2834
Ms1_intensity: 1071045
N_scnas: 127
Ms1_scan_range: [694, 707, 822]
Reci_snr: 0.000391183
Ms2_scan_idx: 1136
Pmz_offset: 8.44e-05
Entropy: 0.9965505003929138
Num Peaks: 167
41.039581298828125 380.0
43.054134368896484 188.0
44.048770904541016 16003.0
56.048912048339844 1003.0
65.03812408447266 379.0
67.054443359375 2140.0
68.05098724365234 542.0
69.0560531616211 204.0
70.06260681152344 552.0
77.0362777709961 1122.0
79.05207824707031 1642.0
80.04840087890625 3189.0
81.06737518310547 980.0
82.06356048583984 4856.0
84.0793228149414 2056.0
89.03892517089844 368.0
90.04683685302734 187.0
91.05238342285156 3632.0
93.06803894042969 2226.0
94.06440734863281 2020.0
95.08113098144531 2132.0
96.0799331665039 2089.0
98.09736633300781 205.0
101.0379409790039 225.0
102.04196166992188 305.0
103.0523681640625 1250.0
105.06941223144531 2023.0
106.06430053710938 2282.0
107.08857727050781 1095.0
108.078369140625 5812.0
109.0888442993164 469.0
110.0966567993164 23349.0
112.10983276367188 210.0
115.05464935302734 994.0
116.04724884033203 491.0
117.05626678466797 5888.0
118.06355285644531 701.0
119.07209014892578 957.0
120.08184051513672 1158.0
121.088134765625 887.0
122.09552764892578 1549.0
123.10708618164062 169.0
124.11032104492188 1758.0
128.04798889160156 362.0
129.05677795410156 285.0
130.06629943847656 3442.0
131.07333374023438 2089.0
132.0778045654297 1268.0
134.09500122070312 5154.0
135.10281372070312 423.0
136.11111450195312 3583.0
138.12741088867188 508.0
142.06396484375 427.0
143.07101440429688 2076.0
144.07992553710938 1119.0
145.0535125732422 4112.0
146.05751037597656 1856.0
147.06838989257812 1550.0
148.1151885986328 1256.0
154.06259155273438 3183.0
155.07278442382812 1592.0
156.08102416992188 534.0
158.0596466064453 21910.0
159.06866455078125 14142.0
160.07736206054688 64267.0
161.0821075439453 288.0
162.0935821533203 16516.0
163.09567260742188 199.0
164.10623168945312 521.0
166.06077575683594 411.0
167.0714111328125 1564.0
168.08328247070312 760.0
169.05078125 293.0
170.06312561035156 2582.0
171.06748962402344 3718.0
172.07481384277344 11757.0
173.08509826660156 6480.0
174.0557403564453 2995.0
176.0703582763672 471.0
180.07785034179688 520.0
181.09243774414062 436.0
182.0568389892578 1417.0
183.06748962402344 4992.0
184.07711791992188 3806.0
185.08189392089844 360.0
186.09130859375 5838.0
187.09771728515625 1559.0
188.0702667236328 3507.0
189.07815551757812 4561.0
190.12355041503906 960.0
192.07904052734375 363.0
193.0897979736328 675.0
194.1012420654297 204.0
195.0663299560547 407.0
196.08096313476562 1302.0
197.0824737548828 1314.0
198.0885009765625 3428.0
199.06541442871094 1469.0
200.07252502441406 6126.0
201.0722198486328 196.0
202.0863800048828 18534.0
204.08627319335938 496.0
205.087890625 373.0
206.1000213623047 388.0
207.1025390625 400.0
208.0771026611328 321.0
209.08441162109375 585.0
210.09210205078125 2190.0
211.0961151123047 479.0
212.10455322265625 1485.0
213.07852172851562 194.0
214.0875701904297 10415.0
215.09283447265625 2483.0
216.10250854492188 1397.0
217.0938720703125 227.0
218.09580993652344 420.0
220.0815887451172 647.0
221.08412170410156 729.0
222.0910186767578 606.0
223.09600830078125 568.0
224.1074676513672 1812.0
225.11489868164062 506.0
226.12460327148438 959.0
227.09848022460938 275.0
228.1041259765625 1110.0
232.1125946044922 385.0
233.0928497314453 267.0
234.09234619140625 532.0
235.09828186035156 341.0
236.11068725585938 4046.0
237.11013793945312 662.0
238.12469482421875 2259.0
239.11972045898438 357.0
244.1369171142578 188.0
246.1297607421875 283.0
247.13253784179688 425.0
248.10861206054688 669.0
249.11538696289062 665.0
250.128662109375 928.0
251.11729431152344 473.0
252.13906860351562 817.0
253.13613891601562 1196.0
254.15753173828125 723.0
256.1368713378906 186.0
260.11181640625 181.0
262.1255187988281 777.0
263.1193542480469 370.0
264.1378479003906 1866.0
265.14007568359375 317.0
266.1533203125 275.0
268.1695556640625 535.0
270.14727783203125 417.0
276.1379699707031 630.0
277.136962890625 434.0
278.156494140625 3802.0
279.15679931640625 581.0
280.1753234863281 278.0
281.1651306152344 709.0
282.1519470214844 21333.0
284.16864013671875 345.0
290.1542053222656 746.0
292.1656799316406 214.0
296.1635437011719 5291.0
305.1765441894531 224.0
307.1827392578125 20438.0
308.1673583984375 323.0
325.1951599121094 35244.0

Name: Evocarpine
Precursor_mz: 340.2631483
Cas: 15266-38-3
Adduct: [M+H]+
Mz: 340.2634911
Comment: Major
Smiles: CCCCC=CCCCCCCCc1cc(=O)c2ccccc2n1C
Formula: C23H33NO
Mix: Alkaloids-pos-mix37
Rt: [0.351, 0.495]
Rt_apex: 5.870272761
Rt_start: 5.816883333
Rt_end: 6.042766667
Ms1_intensity: 19857
N_scnas: 63
Ms1_scan_range: [1428, 1444, 1492]
Reci_snr: 0.008501861
Ms2_scan_idx: 2527
Pmz_offset: 0.001688472
Entropy: 1.0000001192092896
Num Peaks: 19
104.04649353027344 25.0
130.06497192382812 47.0
131.0495147705078 31.0
132.05551147460938 113.0
143.07298278808594 25.0
144.0768585205078 56.0
158.05819702148438 173.0
159.06723022460938 122.0
160.08123779296875 65.0
172.07701110839844 53.0
173.08360290527344 1274.0
174.09312438964844 35.0
186.08978271484375 3054.0
187.1000213623047 246.0
200.10667419433594 460.0
214.1270294189453 49.0
242.15704345703125 141.0
256.17108154296875 64.0
340.26458740234375 4491.0

Name: Evocarpine
Precursor_mz: 340.264063
Cas: 15266-38-3
Adduct: [M+H]+
Mz: 340.2634911
Comment: Minor
Smiles: CCCCC=CCCCCCCCc1cc(=O)c2ccccc2n1C
Formula: C23H33NO
Mix: Alkaloids-pos-mix37
Rt: [0.351, 0.495]
Rt_apex: 5.791238578
Rt_start: 5.753783333
Rt_end: 5.816883333
Ms1_intensity: 1922
N_scnas: 18
Ms1_scan_range: [1409, 1419, 1428]
Reci_snr: 0.098582386
Ms2_scan_idx: 2502
Pmz_offset: 0.002603113
Entropy: 1.0
Num Peaks: 5
158.06153869628906 19.0
173.08338928222656 53.0
186.09146118164062 96.0
200.1143798828125 19.0
340.2615966796875 190.0

Name: N-trans-Sinapoyltyramine
Precursor_mz: 344.1505021
Cas: 200125-11-7
Adduct: [M+H]+
Mz: 344.1492492
Comment: Major
Smiles: COc1cc(/C=C/C(=O)NCCc2ccc(O)cc2)cc(OC)c1O
Formula: C19H21NO5
Mix: Alkaloids-pos-mix37
Rt: [2.922]
Rt_apex: 2.923555475
Rt_start: 2.865016667
Rt_end: 3.425083333
Ms1_intensity: 964303
N_scnas: 104
Ms1_scan_range: [783, 793, 888]
Reci_snr: 0.000136713
Ms2_scan_idx: 1343
Pmz_offset: 0.00121006
Entropy: 0.9972104430198669
Num Peaks: 48
51.02425765991211 434.0
55.01695251464844 231.0
65.03950500488281 727.0
77.04027557373047 6619.0
79.05238342285156 196.0
80.0662841796875 123.0
89.04058837890625 1406.0
90.04851531982422 288.0
91.05406951904297 47785.0
93.07110595703125 8331.0
95.04866027832031 229.0
101.03974151611328 1582.0
102.0451889038086 332.0
103.05418395996094 11607.0
104.0266342163086 796.0
105.03385162353516 280.0
106.0401382446289 202.0
107.046875 339.0
108.05690002441406 340.0
117.03394317626953 1010.0
118.04113006591797 934.0
119.04804229736328 45328.0
120.05461883544922 350.0
121.0654296875 49412.0
129.03175354003906 3700.0
131.0513458251953 481.0
132.02186584472656 1759.0
133.02996826171875 685.0
134.03538513183594 232.0
135.0446014404297 395.0
136.0526885986328 696.0
145.02365112304688 746.0
146.04110717773438 540.0
147.0451202392578 39865.0
149.02403259277344 1668.0
157.03858947753906 2454.0
160.0122833251953 321.0
162.0316619873047 335.0
164.04574584960938 1399.0
166.0614013671875 596.0
174.03233337402344 153.0
175.04090881347656 87574.0
177.01638793945312 246.0
179.07054138183594 2448.0
192.04087829589844 2387.0
207.06898498535156 58978.0
250.10740661621094 123.0
344.154052734375 1109.0

Name: N-trans-Sinapoyltyramine
Precursor_mz: 344.1480842
Cas: 200125-11-7
Adduct: [M+H]+
Mz: 344.1492492
Comment: isomer
Smiles: COc1cc(/C=C/C(=O)NCCc2ccc(O)cc2)cc(OC)c1O
Formula: C19H21NO5
Mix: Alkaloids-pos-mix37
Rt: [2.922]
Rt_apex: 2.790253476
Rt_start: 2.745
Rt_end: 2.865016667
Ms1_intensity: 11554
N_scnas: 23
Ms1_scan_range: [759, 767, 783]
Reci_snr: 0.008165956
Ms2_scan_idx: 1277
Pmz_offset: 0.001207837
Entropy: 1.0
Num Peaks: 11
77.03909301757812 123.0
91.05278778076172 653.0
93.06710052490234 123.0
103.05424499511719 154.0
119.0481185913086 380.0
121.06241607666016 345.0
129.03343200683594 123.0
147.04010009765625 335.0
149.02413940429688 93.0
175.0373077392578 508.0
207.06304931640625 471.0

Name: Clausine E
Precursor_mz: 242.081303
Cas: 182261-83-2
Adduct: [M+H]+
Mz: 242.0811697
Comment: Major
Smiles: COC(=O)c1cc(O)c2[nH]c3ccccc3c2c1
Formula: C14H11NO3
Mix: Alkaloids-pos-mix37
Rt: [3.982]
Rt_apex: 3.979843786
Rt_start: 3.930916667
Rt_end: 4.3281
Ms1_intensity: 330614
N_scnas: 82
Ms1_scan_range: [984, 991, 1067]
Reci_snr: 0.000345033
Ms2_scan_idx: 1849
Pmz_offset: 0.001804608
Entropy: 1.0
Num Peaks: 25
59.0143928527832 440.0
77.03655242919922 782.0
101.03829956054688 680.0
126.04749298095703 847.0
127.05469512939453 10423.0
128.04844665527344 13926.0
129.05722045898438 445.0
139.0497589111328 210.0
151.05064392089844 205.0
152.05784606933594 875.0
153.05972290039062 1207.0
154.06488037109375 92542.0
155.06983947753906 3360.0
164.04928588867188 286.0
166.06317138671875 188.0
178.0672149658203 269.0
179.07237243652344 924.0
180.08224487304688 2964.0
181.04962158203125 220.0
182.06126403808594 28748.0
183.06813049316406 12457.0
196.07574462890625 215.0
198.09117126464844 389.0
210.0562286376953 27990.0
227.05697631835938 506.0

Name: Clausine E
Precursor_mz: 264.0607562
Cas: 182261-83-2
Adduct: [M+Na]+
Mz: 264.0631139
Comment: Major
Smiles: COC(=O)c1cc(O)c2[nH]c3ccccc3c2c1
Formula: C14H11NO3
Mix: Alkaloids-pos-mix37
Rt: [3.982]
Rt_apex: 3.981667058
Rt_start: 3.94475
Rt_end: 4.0414
Ms1_intensity: 2808
N_scnas: 13
Ms1_scan_range: [986, 991, 1000]
Reci_snr: 0.071445378
Ms2_scan_idx: 1852
Pmz_offset: 2.14e-05
Entropy: 1.0
Num Peaks: 1
191.0017852783203 154.0

Name: Clausine E
Precursor_mz: 259.1050867
Cas: 182261-83-2
Adduct: [M+NH4]+
Mz: 259.1077188
Comment: Major
Smiles: COC(=O)c1cc(O)c2[nH]c3ccccc3c2c1
Formula: C14H11NO3
Mix: Alkaloids-pos-mix37
Rt: [3.982]
Rt_apex: 3.981196915
Rt_start: 3.951583333
Rt_end: 4.020566667
Ms1_intensity: 4649
N_scnas: 9
Ms1_scan_range: [987, 991, 997]
Reci_snr: 0.165981211
Ms2_scan_idx: 1842
Pmz_offset: 0.000600653
Entropy: 1.0
Num Peaks: 7
46.06466293334961 93.0
127.05311584472656 154.0
128.04844665527344 154.0
154.06314086914062 870.0
182.0593719482422 285.0
183.0700225830078 201.0
210.06028747558594 377.0

Name: O-Acetylgalanthamine
Precursor_mz: 330.169797
Cas: 25650-83-3
Adduct: [M+H]+
Mz: 330.1699847
Comment: Major
Smiles: COc1ccc2c3c1O[C@H]1C[C@@H](OC(C)=O)C=C[C@@]31CCN(C)C2
Formula: C19H23NO4
Mix: Alkaloids-pos-mix37
Rt: [2.206]
Rt_apex: 2.204708343
Rt_start: 2.164033333
Rt_end: 2.429183333
Ms1_intensity: 3271795
N_scnas: 43
Ms1_scan_range: [659, 665, 703]
Reci_snr: 6.43e-05
Ms2_scan_idx: 917
Pmz_offset: 0.000771763
Entropy: 0.9857827425003052
Num Peaks: 139
42.034603118896484 816.0
43.01838302612305 6867.0
44.048927307128906 10929.0
55.01693344116211 1601.0
56.0501594543457 692.0
58.065223693847656 10024.0
67.05467224121094 227.0
77.04024505615234 2333.0
79.05360412597656 565.0
80.05118560791016 639.0
81.06892395019531 342.0
82.06511688232422 271.0
91.05403137207031 3012.0
93.06970977783203 2522.0
94.06336975097656 1672.0
95.05135345458984 195.0
96.0816421508789 174.0
102.0437240600586 191.0
103.0555648803711 519.0
105.06977081298828 991.0
106.06321716308594 494.0
107.04682922363281 556.0
109.06283569335938 1316.0
115.05503845214844 1883.0
117.06426239013672 389.0
118.06548309326172 170.0
119.0694351196289 346.0
120.0807113647461 475.0
121.06692504882812 597.0
124.07478332519531 395.0
126.0458984375 314.0
127.05152130126953 1862.0
128.05953979492188 1496.0
129.0667724609375 1190.0
131.07379150390625 602.0
132.07826232910156 2592.0
133.0881805419922 4313.0
134.10357666015625 211.0
135.07879638671875 548.0
136.0493621826172 219.0
137.06283569335938 532.0
139.04974365234375 229.0
141.06761169433594 4906.0
142.07615661621094 3436.0
143.08660888671875 825.0
144.0585174560547 216.0
145.06414794921875 653.0
146.07327270507812 460.0
150.08802795410156 267.0
151.0764923095703 1516.0
152.06129455566406 5831.0
153.0701141357422 6391.0
154.07705688476562 929.0
155.05233764648438 9358.0
156.0552520751953 246.0
157.06491088867188 557.0
158.0707550048828 335.0
159.08160400390625 468.0
160.04949951171875 325.0
161.09690856933594 1177.0
162.07269287109375 418.0
163.07650756835938 257.0
164.06724548339844 228.0
165.0699920654297 11744.0
166.0794219970703 13385.0
167.0883026123047 2083.0
168.05838012695312 2276.0
169.06594848632812 19302.0
170.07469177246094 12870.0
171.08091735839844 1065.0
172.08644104003906 308.0
174.06373596191406 369.0
175.07797241210938 3596.0
177.0779266357422 224.0
178.08029174804688 2322.0
179.08737182617188 6333.0
180.0577392578125 712.0
181.0666046142578 18177.0
182.07449340820312 39033.0
183.04531860351562 55462.0
184.05108642578125 549.0
185.09970092773438 12850.0
187.07723999023438 485.0
188.08438110351562 356.0
189.09036254882812 2222.0
190.07968139648438 2815.0
191.08517456054688 7114.0
192.09524536132812 279.0
193.10409545898438 671.0
194.07257080078125 7323.0
195.08265686035156 3808.0
196.0894775390625 1085.0
197.06146240234375 11349.0
198.06942749023438 293863.0
199.07797241210938 1538.0
200.08511352539062 317.0
201.08682250976562 626.0
203.10377502441406 2244.0
206.072509765625 476.0
207.07899475097656 2351.0
208.0960235595703 651.0
209.10134887695312 21502.0
210.0643310546875 1899.0
211.07643127441406 2183.0
212.0868682861328 2982.0
213.09152221679688 203319.0
214.06570434570312 835.0
215.10385131835938 591.0
216.10324096679688 270.0
217.08840942382812 234.0
219.09869384765625 237.0
220.11148071289062 234.0
221.08694458007812 1176.0
222.09176635742188 901.0
223.10513305664062 1184.0
224.08721923828125 1480.0
225.0946044921875 14340.0
226.10214233398438 1025.0
227.10769653320312 2912.0
229.0872802734375 925.0
230.11647033691406 280.0
231.10317993164062 6219.0
236.10716247558594 1404.0
237.11309814453125 332.0
238.1233367919922 1351.0
239.10968017578125 1507.0
240.1089324951172 1023.0
241.12551879882812 1477.0
242.0918426513672 408.0
245.11007690429688 183.0
253.11912536621094 341.0
254.1248321533203 5301.0
255.1280517578125 8827.0
257.1269226074219 650.0
268.135986328125 360.0
270.15277099609375 20693.0
273.11328125 571.0
288.16497802734375 1844.0
330.1727600097656 8010.0

Name: O-Acetylgalanthamine
Precursor_mz: 352.1490568
Cas: 25650-83-3
Adduct: [M+Na]+
Mz: 352.1519289
Comment: Major
Smiles: COc1ccc2c3c1O[C@H]1C[C@@H](OC(C)=O)C=C[C@@]31CCN(C)C2
Formula: C19H23NO4
Mix: Alkaloids-pos-mix37
Rt: [2.206]
Rt_apex: 2.208412342
Rt_start: 2.164033333
Rt_end: 2.318183333
Ms1_intensity: 43715
N_scnas: 22
Ms1_scan_range: [659, 666, 682]
Reci_snr: 0.011566692
Ms2_scan_idx: 894
Pmz_offset: 0.000402308
Entropy: 1.0
Num Peaks: 11
58.06413650512695 321.0
132.08143615722656 685.0
133.08815002441406 1087.0
181.06088256835938 540.0
182.06875610351562 186.0
183.0471649169922 208.0
198.0634307861328 1216.0
213.08941650390625 1440.0
270.1457824707031 1051.0
292.13775634765625 580.0
352.1531677246094 924.0

Name: Colcemid
Precursor_mz: 372.1821018
Cas: 477-30-5
Adduct: [M+H]+
Mz: 372.1805494
Comment: Major
Smiles: CN[C@H]1CCc2cc(OC)c(OC)c(OC)c2-c2ccc(OC)c(=O)cc21
Formula: C21H25NO5
Mix: Alkaloids-pos-mix37
Rt: [2.478]
Rt_apex: 2.476979122
Rt_start: 2.429183333
Rt_end: 2.652833333
Ms1_intensity: 5745768
N_scnas: 32
Ms1_scan_range: [703, 710, 736]
Reci_snr: 2.95e-05
Ms2_scan_idx: 1085
Pmz_offset: 0.002835585
Entropy: 0.9954725503921509
Num Peaks: 235
41.0379524230957 490.0
42.03371810913086 5209.0
44.0489501953125 29728.0
45.031402587890625 614.0
55.016963958740234 498.0
56.050193786621094 10239.0
57.01988983154297 1504.0
58.06525802612305 3835.0
68.05010223388672 674.0
70.06523895263672 8739.0
71.07200622558594 656.0
72.04425048828125 13289.0
74.06048583984375 961.0
75.04560089111328 261.0
77.03659057617188 207.0
80.04872131347656 162.0
84.04235076904297 536.0
86.0586929321289 807.0
91.05408477783203 829.0
94.06342315673828 905.0
100.07017517089844 336.0
103.05278015136719 226.0
104.05670928955078 164.0
107.04544067382812 385.0
115.05059051513672 1192.0
117.06888580322266 186.0
118.06402587890625 208.0
119.05571746826172 360.0
121.06391143798828 227.0
122.0355453491211 360.0
123.04841613769531 212.0
127.05475616455078 448.0
128.0596160888672 706.0
129.07003784179688 421.0
131.0465545654297 528.0
132.07833862304688 306.0
133.06236267089844 194.0
134.05816650390625 187.0
137.06126403808594 3648.0
139.05313110351562 1120.0
140.06275939941406 441.0
141.07102966308594 1974.0
142.07623291015625 412.0
143.04808044433594 203.0
144.05691528320312 447.0
145.06423950195312 771.0
146.056396484375 504.0
147.04344177246094 707.0
148.04747009277344 850.0
149.0480499267578 1306.0
150.0434112548828 262.0
151.07485961914062 989.0
152.06483459472656 3280.0
153.06846618652344 2671.0
154.0771484375 637.0
155.0803985595703 629.0
156.05709838867188 306.0
157.063232421875 661.0
158.0708465576172 239.0
159.06753540039062 416.0
160.07444763183594 550.0
161.0631561279297 839.0
162.0906524658203 206.0
163.056884765625 541.0
164.0691375732422 5293.0
165.0718994140625 5136.0
166.0777130126953 1726.0
167.0847625732422 2804.0
168.05848693847656 1215.0
169.06422424316406 3077.0
170.0674591064453 746.0
171.0755157470703 683.0
172.0515594482422 305.0
173.0543975830078 583.0
174.06939697265625 374.0
175.07435607910156 978.0
176.06918334960938 1275.0
177.06869506835938 2600.0
178.0803985595703 3971.0
179.08560180664062 3841.0
180.0559539794922 1462.0
181.07803344726562 6544.0
182.0727081298828 2578.0
183.07769775390625 2546.0
184.0511932373047 846.0
185.05780029296875 847.0
186.07098388671875 519.0
187.0715789794922 903.0
188.0825653076172 732.0
189.07310485839844 1682.0
190.08172607421875 1595.0
191.0852813720703 2707.0
192.072021484375 1328.0
193.06910705566406 1767.0
194.0707244873047 2957.0
195.080810546875 8779.0
196.08763122558594 1880.0
197.0615692138672 7791.0
198.06756591796875 3601.0
199.07611083984375 2711.0
200.04751586914062 361.0
201.05511474609375 669.0
202.08119201660156 834.0
203.0699005126953 622.0
204.10110473632812 924.0
205.068603515625 3639.0
206.07666015625 2895.0
207.0811309814453 8076.0
208.08602905273438 2567.0
209.0953826904297 3953.0
210.07260131835938 2865.0
211.08267211914062 9048.0
212.08494567871094 4360.0
213.09164428710938 7831.0
214.06582641601562 1423.0
215.071044921875 1684.0
216.07655334472656 603.0
217.06785583496094 1082.0
218.0821533203125 1483.0
219.0821990966797 3984.0
220.09286499023438 2912.0
221.06202697753906 3730.0
222.08770751953125 3590.0
223.07801818847656 10556.0
224.08314514160156 8662.0
225.0652618408203 6502.0
226.09805297851562 3064.0
227.07611083984375 7315.0
228.07958984375 1319.0
229.0852813720703 2910.0
230.091064453125 264.0
231.10757446289062 771.0
232.07716369628906 495.0
233.05947875976562 2408.0
234.08038330078125 3197.0
235.07553100585938 16405.0
236.0857391357422 6420.0
237.0916290283203 8801.0
238.08665466308594 3718.0
239.0902862548828 13771.0
240.08297729492188 10425.0
241.08644104003906 29996.0
242.0963592529297 6363.0
243.06900024414062 2420.0
244.06991577148438 790.0
245.0728759765625 454.0
246.0911102294922 726.0
247.07835388183594 4808.0
248.09188842773438 2506.0
249.0897979736328 6808.0
250.09634399414062 7882.0
251.0782470703125 15098.0
252.08212280273438 11824.0
253.09024047851562 11164.0
254.11378479003906 6566.0
255.09681701660156 11889.0
256.1086730957031 24198.0
257.0798034667969 9685.0
258.0888366699219 3623.0
259.09759521484375 811.0
260.06982421875 269.0
261.0982971191406 739.0
262.0879211425781 2593.0
263.07257080078125 9724.0
264.0955810546875 10514.0
265.08856201171875 12831.0
266.10400390625 9616.0
267.0984802246094 40949.0
268.0856018066406 8972.0
269.083740234375 10918.0
270.09759521484375 4333.0
271.0948486328125 4059.0
272.10552978515625 11690.0
273.1180725097656 2093.0
274.0814208984375 407.0
275.0953063964844 728.0
276.1064147949219 2065.0
277.1006774902344 6829.0
278.103759765625 17945.0
279.096923828125 14362.0
280.1083068847656 7607.0
281.100341796875 8442.0
282.1177062988281 63463.0
283.09674072265625 22645.0
284.103515625 11028.0
285.112060546875 10565.0
286.11529541015625 3307.0
287.1321716308594 7838.0
288.10797119140625 533.0
289.1069030761719 232.0
290.1123352050781 1057.0
291.10992431640625 818.0
292.0972595214844 5431.0
293.0958557128906 5981.0
294.1106262207031 20956.0
295.1005859375 69402.0
296.12603759765625 23252.0
297.11700439453125 5277.0
298.11688232421875 14023.0
299.1257019042969 5496.0
300.09979248046875 7489.0
301.1119689941406 3428.0
302.1136474609375 3142.0
306.11248779296875 5065.0
307.1175231933594 2541.0
308.129150390625 15493.0
309.132568359375 29089.0
310.1203308105469 167054.0
311.0972595214844 46580.0
312.1600341796875 32339.0
313.13275146484375 12664.0
314.1069641113281 6542.0
315.1250305175781 18609.0
316.134765625 2386.0
321.1297302246094 336.0
322.1490478515625 1073.0
323.15484619140625 4857.0
324.1268310546875 28355.0
325.13568115234375 17226.0
326.12078857421875 37463.0
327.1124267578125 3694.0
328.1539001464844 3174.0
329.13336181640625 4090.0
338.1458435058594 2918.0
339.1478576660156 4802.0
340.15911865234375 60929.0
341.1459655761719 36353.0
342.1368103027344 45253.0
343.1551208496094 1313.0
344.15411376953125 9167.0
354.1736145019531 2460.0
356.1518859863281 4083.0
357.16162109375 13920.0
371.0481262207031 602.0
372.184326171875 222870.0

Name: Colcemid
Precursor_mz: 394.1623365
Cas: 477-30-5
Adduct: [M+Na]+
Mz: 394.1624936
Comment: Major
Smiles: CN[C@H]1CCc2cc(OC)c(OC)c(OC)c2-c2ccc(OC)c(=O)cc21
Formula: C21H25NO5
Mix: Alkaloids-pos-mix37
Rt: [2.478]
Rt_apex: 2.502800694
Rt_start: 2.436016667
Rt_end: 2.752
Ms1_intensity: 88645
N_scnas: 55
Ms1_scan_range: [704, 714, 760]
Reci_snr: 0.001586203
Ms2_scan_idx: 1105
Pmz_offset: 0.002087954
Entropy: 1.0
Num Peaks: 3
362.138427734375 93.0
379.15020751953125 62.0
394.1639099121094 1252.0

Name: N-phenethylbenzamide
Precursor_mz: 226.12269
Cas: 3278-14-6
Adduct: [M+H]+
Mz: 226.1226406
Comment: Major
Smiles: O=C(NCCc1ccccc1)c1ccccc1
Formula: C15H15NO
Mix: Alkaloids-pos-mix37
Rt: [3.842]
Rt_apex: 3.835880582
Rt_start: 3.786916667
Rt_end: 4.07475
Ms1_intensity: 4854044
N_scnas: 51
Ms1_scan_range: [960, 967, 1012]
Reci_snr: 0.000149057
Ms2_scan_idx: 1744
Pmz_offset: 0.000107302
Entropy: 0.9913285374641418
Num Peaks: 27
44.0135383605957 2196.0
49.00959014892578 93.0
50.01481628417969 2986.0
51.023231506347656 30111.0
53.038570404052734 1161.0
65.03607940673828 185.0
74.01818084716797 154.0
77.03900909423828 367533.0
78.04862976074219 154.0
79.05484771728516 132676.0
81.03606414794922 123.0
89.03923034667969 123.0
91.05670928955078 173.0
95.04861450195312 2881.0
102.05081176757812 1059.0
103.05413818359375 137055.0
104.05950927734375 613.0
105.04243469238281 296412.0
106.06321716308594 154.0
116.04915618896484 92.0
119.0724868774414 93.0
120.07917022705078 386.0
122.06027221679688 2133.0
130.06993103027344 92.0
134.09219360351562 289.0
148.07810974121094 421.0
226.12322998046875 4156.0

Name: DL-Norvaline
Precursor_mz: 118.0843566
Cas: 760-78-1
Adduct: [M+H]+
Mz: 118.0862551
Comment: Minor
Smiles: CCC[C@H](N)C(=O)O
Formula: C5H11NO2
Mix: Alkaloids-pos-mix37
Rt: [0.288, 0.349]
Rt_apex: 0.286428294
Rt_start: 0.238666667
Rt_end: 0.3227
Ms1_intensity: 2691
N_scnas: 13
Ms1_scan_range: [88, 96, 102]
Reci_snr: 0.016472715
Ms2_scan_idx: 126
Pmz_offset: 0.000421865
Entropy: 1.0
Num Peaks: 6
42.0335578918457 154.0
43.04033279418945 93.0
44.04878234863281 31.0
58.065032958984375 824.0
59.0734977722168 123.0
118.08338928222656 154.0

Name: N-​Feruloyloctopamine
Precursor_mz: 330.1322046
Cas: 66648-44-0
Adduct: [M+H]+
Mz: 330.1335992
Comment: Major
Smiles: COc1cc(/C=C/C(=O)NCC(O)c2ccc(O)cc2)ccc1O
Formula: C18H19NO5
Mix: Alkaloids-pos-mix37
Rt: [2.438]
Rt_apex: 2.438650918
Rt_start: 2.412716667
Rt_end: 2.483016667
Ms1_intensity: 11801
N_scnas: 10
Ms1_scan_range: [700, 704, 711]
Reci_snr: 0.167593523
Ms2_scan_idx: 1048
Pmz_offset: 0.001800977
Entropy: 0.9999998211860657
Num Peaks: 14
77.03775024414062 387.0
78.04240417480469 242.0
89.03787231445312 8495.0
91.05265808105469 512.0
106.0400619506836 941.0
117.03233337402344 20588.0
134.03529357910156 1872.0
144.04330444335938 254.0
145.02691650390625 36277.0
149.05990600585938 6484.0
177.0554656982422 27404.0
198.06935119628906 359.0
213.093505859375 331.0
312.1250305175781 256.0

Name: N-Formylcytisine
Precursor_mz: 219.1124292
Cas: 53007-06-0
Adduct: [M+H]+
Mz: 219.1128042
Comment: Major
Smiles: O=CN1C[C@@H]2C[C@H](C1)c1cccc(=O)n1C2
Formula: C12H14N2O2
Mix: Alkaloids-pos-mix37
Rt: [1.562]
Rt_apex: 1.554837572
Rt_start: 1.493566667
Rt_end: 1.835716667
Ms1_intensity: 1077158
N_scnas: 83
Ms1_scan_range: [486, 503, 570]
Reci_snr: 0.000133463
Ms2_scan_idx: 637
Pmz_offset: 0.001760617
Entropy: 0.9993776082992554
Num Peaks: 67
42.033607482910156 911.0
43.05419921875 92.0
44.049766540527344 37661.0
51.02313232421875 270.0
53.03744125366211 371.0
65.03934478759766 274.0
67.0418930053711 312.0
68.05223846435547 92.0
70.06623077392578 815.0
72.048828125 404.0
77.04008483886719 2080.0
78.03235626220703 881.0
79.05343627929688 1354.0
80.04976654052734 1861.0
81.0346450805664 213.0
82.06367492675781 831.0
89.04037475585938 606.0
90.04429626464844 439.0
91.05250549316406 3264.0
92.0501708984375 755.0
93.06951904296875 697.0
94.06453704833984 1111.0
96.04568481445312 425.0
103.0539321899414 2995.0
104.04928588867188 6634.0
105.06379699707031 1730.0
106.06733703613281 1419.0
108.04351043701172 450.0
109.05381774902344 240.0
110.05999755859375 702.0
115.05329895019531 4519.0
116.05194854736328 560.0
117.05794525146484 11113.0
118.06523895263672 2681.0
119.0753173828125 1017.0
120.0804672241211 3502.0
121.08058166503906 92.0
122.05847930908203 3854.0
127.0560073852539 457.0
128.0481719970703 446.0
130.0664825439453 3042.0
131.07351684570312 2413.0
132.07960510253906 3917.0
133.05392456054688 5187.0
134.06268310546875 1124.0
140.05076599121094 219.0
141.05899047851562 501.0
142.0675048828125 3415.0
143.07455444335938 1722.0
144.08180236816406 738.0
145.0537109375 567.0
146.0611114501953 20095.0
147.06858825683594 4217.0
148.07781982421875 40772.0
149.06993103027344 281.0
155.0712432861328 206.0
156.08297729492188 289.0
158.0651397705078 410.0
159.06710815429688 762.0
160.0758056640625 20830.0
162.09022521972656 6552.0
174.09115600585938 1004.0
176.07431030273438 538.0
191.1197052001953 4559.0
201.1023406982422 221.0
218.45062255859375 164.0
219.1148681640625 69102.0

Name: N-Formylcytisine
Precursor_mz: 241.0932351
Cas: 53007-06-0
Adduct: [M+Na]+
Mz: 241.0947484
Comment: Major
Smiles: O=CN1C[C@@H]2C[C@H](C1)c1cccc(=O)n1C2
Formula: C12H14N2O2
Mix: Alkaloids-pos-mix37
Rt: [1.562]
Rt_apex: 1.55906587
Rt_start: 1.514316667
Rt_end: 1.650233333
Ms1_intensity: 93966
N_scnas: 25
Ms1_scan_range: [494, 504, 520]
Reci_snr: 0.010868049
Ms2_scan_idx: 639
Pmz_offset: 2.12e-05
Entropy: 1.0
Num Peaks: 5
118.05303955078125 31.0
129.05056762695312 62.0
147.05836486816406 31.0
149.0767822265625 31.0
241.09451293945312 1515.0

Name: Viridicatol
Precursor_mz: 254.0799149
Cas: 14484-44-7
Adduct: [M+H]+
Mz: 254.0811697
Comment: Major
Smiles: O=c1[nH]c2ccccc2c(-c2cccc(O)c2)c1O
Formula: C15H11NO3
Mix: Alkaloids-pos-mix38
Rt: [2.988]
Rt_apex: 3.159746256
Rt_start: 3.087983333
Rt_end: 3.260316667
Ms1_intensity: 2106
N_scnas: 25
Ms1_scan_range: [753, 763, 779]
Reci_snr: 0.008589448
Ms2_scan_idx: 1478
Pmz_offset: 0.001695126
Entropy: 1.0
Num Peaks: 2
180.0911865234375 93.0
254.08621215820312 93.0

Name: 4-Hydroxybenzylamine
Precursor_mz: 146.0584256
Cas: 696-60-6
Adduct: [M+Na]+
Mz: 146.0576346
Comment: Major
Smiles: NCc1ccc(O)cc1
Formula: C7H9NO
Mix: Alkaloids-pos-mix38
Rt: nan
Rt_apex: 1.528705487
Rt_start: 1.492833333
Rt_end: 1.576433333
Ms1_intensity: 26872
N_scnas: 14
Ms1_scan_range: [456, 464, 471]
Reci_snr: 0.0017169
Ms2_scan_idx: 603
Pmz_offset: 0.000121214
Entropy: 0.9707940220832825
Num Peaks: 5
65.0369644165039 93.0
89.03760528564453 93.0
90.04550170898438 123.0
91.05640411376953 484.0
117.0562973022461 422.0

Name: Aristolochic acid C
Precursor_mz: 328.0436321
Cas: 4849-90-5
Adduct: [M+H]+
Mz: 328.0451781
Comment: Major
Smiles: O=C(O)c1cc2c(c3c1c([N+](=O)[O-])cc1ccc(O)cc13)OCO2
Formula: C16H9NO7
Mix: Alkaloids-pos-mix38
Rt: [3.275]
Rt_apex: 3.276739176
Rt_start: 3.232316667
Rt_end: 3.4033
Ms1_intensity: 21100
N_scnas: 24
Ms1_scan_range: [775, 781, 800]
Reci_snr: 0.013141019
Ms2_scan_idx: 1537
Pmz_offset: 6.38e-05
Entropy: 0.994902491569519
Num Peaks: 29
68.997802734375 154.0
127.05441284179688 247.0
129.0298309326172 222.0
152.06272888183594 480.0
153.07154846191406 592.0
155.05029296875 476.0
156.0461883544922 154.0
157.02943420410156 415.0
168.0526123046875 302.0
179.0494842529297 303.0
180.04798889160156 788.0
181.0625 624.0
182.06280517578125 525.0
184.0469512939453 92.0
195.0372314453125 192.0
196.04591369628906 193.0
207.04229736328125 335.0
208.0491180419922 619.0
209.05838012695312 866.0
210.06398010253906 373.0
211.03936767578125 92.0
237.04788208007812 2927.0
238.0579833984375 390.0
240.03895568847656 169.0
254.05731201171875 251.0
265.0537109375 236.0
266.0439147949219 598.0
282.0558166503906 3002.0
284.0579833984375 92.0

Name: Aristolochic acid C
Precursor_mz: 345.071156
Cas: 4849-90-5
Adduct: [M+NH4]+
Mz: 345.0717272
Comment: Major
Smiles: O=C(O)c1cc2c(c3c1c([N+](=O)[O-])cc1ccc(O)cc13)OCO2
Formula: C16H9NO7
Mix: Alkaloids-pos-mix38
Rt: [3.275]
Rt_apex: 3.274700353
Rt_start: 3.2255
Rt_end: 3.4033
Ms1_intensity: 54134
N_scnas: 25
Ms1_scan_range: [774, 781, 800]
Reci_snr: 0.000982452
Ms2_scan_idx: 1538
Pmz_offset: 0.001670631
Entropy: 0.9999999403953552
Num Peaks: 34
127.05599975585938 262.0
129.0346221923828 287.0
152.0609893798828 563.0
153.06808471679688 549.0
154.07327270507812 406.0
155.05029296875 572.0
157.02590942382812 441.0
165.0660858154297 93.0
168.05442810058594 473.0
179.047607421875 245.0
180.04611206054688 1240.0
181.0625 704.0
182.05523681640625 956.0
183.0430908203125 268.0
193.06085205078125 93.0
196.04983520507812 339.0
197.05520629882812 93.0
207.04632568359375 387.0
208.0491180419922 1212.0
209.0543212890625 1096.0
210.07008361816406 355.0
211.03529357910156 376.0
225.05422973632812 378.0
237.0543670654297 5000.0
238.05581665039062 644.0
240.0367889404297 308.0
254.05731201171875 767.0
265.05828857421875 640.0
266.0484924316406 1905.0
267.0566101074219 1677.0
281.0409240722656 250.0
282.0558166503906 9819.0
284.0556335449219 1364.0
310.0406188964844 1399.0

Name: DL-Tryptophan
Precursor_mz: 205.0963993
Cas: 54-12-6
Adduct: [M+H]+
Mz: 205.0971541
Comment: Major
Smiles: N[C@@H](Cc1c[nH]c2ccccc12)C(=O)O
Formula: C11H12N2O2
Mix: Alkaloids-pos-mix38
Rt: [1.527]
Rt_apex: 1.525794669
Rt_start: 1.490166667
Rt_end: 1.619416667
Ms1_intensity: 229720
N_scnas: 25
Ms1_scan_range: [455, 463, 481]
Reci_snr: 0.002729436
Ms2_scan_idx: 621
Pmz_offset: 0.000212052
Entropy: 0.9999998211860657
Num Peaks: 33
46.027313232421875 92.0
65.03921508789062 753.0
74.0227279663086 425.0
77.0387191772461 1150.0
89.04023742675781 3737.0
90.04682159423828 2170.0
91.05504608154297 25542.0
93.05583953857422 239.0
102.04479217529297 216.0
103.05378723144531 1864.0
104.05056762695312 257.0
105.07228088378906 868.0
115.05314636230469 34721.0
116.0623779296875 2978.0
117.05931091308594 18670.0
118.06661224365234 68627.0
126.04548645019531 218.0
127.05268859863281 1674.0
128.0480194091797 1079.0
130.06472778320312 8798.0
131.07176208496094 384.0
132.07945251464844 6101.0
140.0506134033203 863.0
141.0571746826172 600.0
142.0673370361328 8711.0
143.07608032226562 15768.0
144.07997131347656 5546.0
145.0653839111328 215.0
146.0592498779297 14914.0
155.05885314941406 319.0
159.09173583984375 1136.0
170.0631866455078 2568.0
188.07228088378906 1119.0

Name: Methyl L-pyroglutamate
Precursor_mz: 144.0641298
Cas: 4931-66-2
Adduct: [M+H]+
Mz: 144.0655196
Comment: Major
Smiles: COC(=O)[C@@H]1CCC(=O)N1
Formula: C6H9NO3
Mix: Alkaloids-pos-mix38
Rt: [1.175]
Rt_apex: 1.173127808
Rt_start: 1.119816667
Rt_end: 1.310033333
Ms1_intensity: 170550
N_scnas: 48
Ms1_scan_range: [358, 370, 407]
Reci_snr: 0.00031277
Ms2_scan_idx: 467
Pmz_offset: 0.000188323
Entropy: 0.9925563931465149
Num Peaks: 11
41.037750244140625 4705.0
42.03169250488281 46.0
44.01149368286133 167.0
55.01671600341797 215.0
56.048892974853516 7483.0
57.05567169189453 88.0
66.03443908691406 62.0
71.04686737060547 31.0
84.04330444335938 21299.0
116.07148742675781 98.0
144.06317138671875 128.0

Name: Sodium Camptothecin
Precursor_mz: 367.1286157
Cas: 25387-67-1
Adduct: [M+H]+
Mz: 367.1288481
Comment: Major
Smiles: CC[C@@](O)(C(=O)O)c1cc2n(c(=O)c1CO)Cc1cc3ccccc3nc1-2
Formula: C20H18N2O5
Mix: Alkaloids-pos-mix38
Rt: [5.749]
Rt_apex: 2.788426736
Rt_start: 2.75135
Rt_end: 2.837666667
Ms1_intensity: 4128
N_scnas: 12
Ms1_scan_range: [703, 709, 716]
Reci_snr: 0.016859224
Ms2_scan_idx: 1169
Pmz_offset: 0.001243412
Entropy: 0.9999998807907104
Num Peaks: 3
219.092041015625 93.0
259.0856628417969 93.0
303.1187438964844 92.0

Name: Atherosperminine
Precursor_mz: 310.1805444
Cas: 5531-98-6
Adduct: [M+H]+
Mz: 310.1801554
Comment: Major
Smiles: COc1cc(CCN(C)C)c2ccc3ccccc3c2c1OC
Formula: C20H23NO2
Mix: Alkaloids-pos-mix38
Rt: [3.402]
Rt_apex: 3.398531753
Rt_start: 3.355633333
Rt_end: 4.093083333
Ms1_intensity: 4879589
N_scnas: 123
Ms1_scan_range: [793, 799, 917]
Reci_snr: 7.18e-05
Ms2_scan_idx: 1629
Pmz_offset: 0.001353109
Entropy: 0.9978801012039185
Num Peaks: 78
42.0325927734375 2532.0
43.040283203125 987.0
45.03306198120117 212.0
56.04887771606445 405.0
58.06498718261719 130457.0
72.083251953125 887.0
85.02777099609375 366.0
115.0546646118164 348.0
127.05269622802734 391.0
128.06072998046875 2683.0
139.05096435546875 231.0
141.0721893310547 688.0
142.07907104492188 92.0
150.04287719726562 204.0
151.05361938476562 789.0
152.06256103515625 1740.0
153.0679168701172 879.0
155.046630859375 277.0
163.0545196533203 755.0
164.05776977539062 690.0
165.07131958007812 13986.0
166.07713317871094 766.0
167.08236694335938 708.0
176.06112670898438 1650.0
177.0699462890625 4269.0
178.07791137695312 62706.0
179.08685302734375 119135.0
180.09487915039062 656.0
181.0660858154297 1294.0
182.0626220703125 92.0
187.0517578125 419.0
188.05690002441406 319.0
189.068603515625 60502.0
190.07720947265625 43563.0
191.08657836914062 178980.0
192.09471130371094 4099.0
193.0918426513672 7363.0
194.10916137695312 2319.0
195.07623291015625 1238.0
200.06072998046875 381.0
201.0723419189453 5779.0
202.07852172851562 34993.0
203.085205078125 88459.0
204.09239196777344 8266.0
205.0940399169922 14621.0
206.07395935058594 7286.0
207.0804443359375 132681.0
208.0873565673828 2074.0
209.0946807861328 608.0
213.07455444335938 360.0
214.07949829101562 1354.0
215.0867919921875 7120.0
216.08615112304688 298.0
217.067138671875 29371.0
218.07315063476562 53813.0
219.08148193359375 176096.0
220.0858917236328 5607.0
221.080078125 50580.0
222.1016082763672 11500.0
223.0709991455078 544.0
224.0823974609375 319.0
231.07908630371094 8894.0
232.08709716796875 4734.0
233.0972900390625 49122.0
234.10537719726562 446371.0
235.07691955566406 600760.0
236.0828094482422 40379.0
237.08868408203125 5596.0
238.10104370117188 462.0
239.1046905517578 265.0
243.1032257080078 187.0
249.09120178222656 32229.0
250.0999755859375 590728.0
251.11302185058594 198.0
264.1221008300781 210.0
265.124267578125 617686.0
266.1329345703125 366.0
310.1836242675781 31814.0

Name: Atherosperminine
Precursor_mz: 310.1790615
Cas: 5531-98-6
Adduct: [M+H]+
Mz: 310.1801554
Comment: isomer
Smiles: COc1cc(CCN(C)C)c2ccc3ccccc3c2c1OC
Formula: C20H23NO2
Mix: Alkaloids-pos-mix38
Rt: [3.402]
Rt_apex: 4.141967816
Rt_start: 4.093083333
Rt_end: 4.689216667
Ms1_intensity: 4912
N_scnas: 144
Ms1_scan_range: [917, 931, 1062]
Reci_snr: 0.115201103
Ms2_scan_idx: 2002
Pmz_offset: 0.000129748
Entropy: 0.9999998807907104
Num Peaks: 20
58.06495666503906 102.0
178.08531188964844 41.0
179.0848846435547 132.0
189.0665740966797 51.0
190.07130432128906 62.0
191.08840942382812 136.0
193.1073455810547 31.0
202.0744171142578 62.0
203.08709716796875 77.0
207.080322265625 86.0
217.06907653808594 31.0
218.06887817382812 51.0
219.07720947265625 145.0
233.0950164794922 76.0
234.1031036376953 219.0
235.0746307373047 405.0
236.078369140625 51.0
249.08221435546875 41.0
265.121826171875 190.0
310.176025390625 31.0

Name: Leptomerine
Precursor_mz: 202.1225607
Cas: 22048-97-1
Adduct: [M+H]+
Mz: 202.1226406
Comment: Major
Smiles: CCCc1cc(=O)c2ccccc2n1C
Formula: C13H15NO
Mix: Alkaloids-pos-mix38
Rt: [2.663]
Rt_apex: 2.661705057
Rt_start: 2.613016667
Rt_end: 3.3903
Ms1_intensity: 10644202
N_scnas: 115
Ms1_scan_range: [682, 689, 798]
Reci_snr: 5.34e-05
Ms2_scan_idx: 1084
Pmz_offset: 0.0016998
Entropy: 0.9956837892532349
Num Peaks: 71
41.038692474365234 2546.0
42.03446578979492 689.0
43.05598831176758 1014.0
50.01466751098633 344.0
51.02207946777344 2179.0
53.03841781616211 260.0
54.03544616699219 380.0
55.01781463623047 12319.0
65.039306640625 555.0
67.01773071289062 405.0
68.0487289428711 898.0
69.0339584350586 1309.0
76.02842712402344 378.0
77.038818359375 47005.0
78.04720306396484 10794.0
79.05216217041016 875.0
82.03059387207031 5024.0
89.04035186767578 5397.0
90.04560852050781 2326.0
91.05382537841797 9736.0
95.05113983154297 446.0
96.04566192626953 381.0
101.03807067871094 935.0
102.04634094238281 4327.0
103.05392456054688 103937.0
104.0535659790039 84355.0
105.03502655029297 8920.0
106.06732940673828 3627.0
113.03761291503906 337.0
114.0469741821289 1182.0
115.05480194091797 19403.0
116.05345916748047 4315.0
117.06402587890625 18292.0
118.06676483154297 3352.0
119.03856658935547 718.0
120.04664611816406 643.0
126.0425033569336 423.0
127.0528564453125 11586.0
128.05294799804688 9057.0
129.06015014648438 2320.0
130.06649780273438 182220.0
131.05104064941406 311007.0
132.05865478515625 185823.0
133.0523223876953 1951.0
134.0594482421875 4235.0
140.04913330078125 1081.0
142.06417846679688 2098.0
143.07290649414062 8740.0
144.0818328857422 145868.0
145.0638885498047 16119.0
146.0645294189453 4131.0
147.06690979003906 1605.0
154.06459045410156 4659.0
155.0625457763672 1254.0
156.08477783203125 2908.0
157.0540771484375 556.0
158.06166076660156 303596.0
159.0689239501953 10222.0
160.07762145996094 39042.0
171.0696258544922 517.0
172.0769500732422 98360.0
173.0872344970703 856563.0
174.08750915527344 6079.0
184.0774383544922 185.0
187.09996032714844 1236.0
201.5086212158203 3157.0
202.12664794921875 602558.0
202.8615264892578 1186.0
203.01947021484375 828.0
203.19546508789062 465.0
203.35552978515625 166.0

Name: 10-Methoxycamptothecin
Precursor_mz: 379.1303137
Cas: 19685-10-0
Adduct: [M+H]+
Mz: 379.1288481
Comment: Major
Smiles: CC[C@@]1(O)C(=O)OCc2c1cc1n(c2=O)Cc2cc3cc(OC)ccc3nc2-1
Formula: C21H18N2O5
Mix: Alkaloids-pos-mix38
Rt: [3.302]
Rt_apex: 3.297512026
Rt_start: 3.081316667
Rt_end: 4.172916667
Ms1_intensity: 2771575
N_scnas: 185
Ms1_scan_range: [752, 784, 938]
Reci_snr: 9.59e-05
Ms2_scan_idx: 1567
Pmz_offset: 0.002820838
Entropy: 0.9953494668006897
Num Peaks: 89
57.032371520996094 2279.0
155.06243896484375 3176.0
168.0688934326172 955.0
169.08197021484375 204.0
173.08157348632812 206.0
183.05628967285156 2603.0
191.07115173339844 581.0
192.0675811767578 1251.0
193.0880584716797 973.0
196.07528686523438 364.0
197.07479858398438 527.0
198.07687377929688 13369.0
199.08543395996094 1493.0
205.07606506347656 1183.0
206.08010864257812 3142.0
207.0906524658203 5536.0
208.0975799560547 3337.0
209.0704345703125 212.0
210.09437561035156 367.0
211.08819580078125 4317.0
212.09048461914062 885.0
213.0992431640625 525.0
218.0877685546875 215.0
219.09405517578125 954.0
220.09849548339844 325.0
221.07810974121094 853.0
222.08499145507812 395.0
223.09835815429688 853.0
224.10142517089844 1050.0
225.09832763671875 532.0
231.09201049804688 505.0
233.06954956054688 309.0
234.0840301513672 2453.0
235.0856475830078 14279.0
236.0958709716797 17943.0
237.10394287109375 1083.0
238.11415100097656 296.0
239.12652587890625 652.0
245.10736083984375 301.0
246.11465454101562 1089.0
247.0953369140625 1011.0
248.0978546142578 1198.0
249.10462951660156 27832.0
250.11343383789062 37713.0
251.1175994873047 11806.0
253.13421630859375 228.0
259.0810852050781 355.0
260.10308837890625 179.0
261.1044006347656 802.0
262.11676025390625 1496.0
263.083251953125 1257.0
264.09259033203125 3509.0
265.1015625 2166.0
266.1033020019531 554.0
272.10479736328125 235.0
273.10345458984375 256.0
274.11322021484375 1887.0
275.11785888671875 751.0
276.08935546875 3650.0
277.0976257324219 4849.0
278.1053771972656 18717.0
279.1149597167969 37472.0
281.12078857421875 198.0
289.13714599609375 2165.0
290.111572265625 591.0
291.11395263671875 1213.0
292.1204833984375 10465.0
293.0950927734375 922.0
294.10504150390625 241.0
302.1080017089844 1113.0
304.08697509765625 595.0
305.1254577636719 2232.0
306.09698486328125 1167.0
307.143798828125 11745.0
318.10821533203125 385.0
319.1127014160156 1208.0
320.12127685546875 2906.0
321.1213684082031 613.0
322.0953369140625 948.0
323.1363525390625 487.0
333.12646484375 2871.0
334.1184387207031 558.0
335.1401672363281 254869.0
349.0860290527344 450.0
350.0935974121094 5090.0
351.12890625 456.0
361.1127014160156 604.0
377.9669494628906 362.0
379.130126953125 159017.0

Name: Pseudocoptisine chloride
Precursor_mz: 320.0891362
Cas: 30044-78-1
Adduct: [M]+
Mz: 320.0917344
Comment: Major
Smiles: c1c2c(cc3c1OCO3)-c1cc3cc4c(cc3c[n+]1CC2)OCO4
Formula: C19H14NO4+
Mix: Alkaloids-pos-mix39
Rt: [1.885]
Rt_apex: 2.709032909
Rt_start: 2.63245
Rt_end: 3.264916667
Ms1_intensity: 2579
N_scnas: 128
Ms1_scan_range: [654, 672, 783]
Reci_snr: 0.038480873
Ms2_scan_idx: 1242
Pmz_offset: 0.001348832
Entropy: 0.936928391456604
Num Peaks: 10
204.0801239013672 126.0
234.09434509277344 40.0
247.0640106201172 57.0
261.0835266113281 31.0
262.0867614746094 157.0
276.0702209472656 65.0
290.0847473144531 122.0
292.10076904296875 82.0
305.07098388671875 136.0
320.0955810546875 963.0

Name: 2-Hydroxybenzylamine
Precursor_mz: 124.0733156
Cas: 932-30-9
Adduct: [M+H]+
Mz: 124.0756904
Comment: Major
Smiles: NCc1ccccc1O
Formula: C7H9NO
Mix: Alkaloids-pos-mix39
Rt: nan
Rt_apex: 0.595394315
Rt_start: 0.577483333
Rt_end: 0.688033333
Ms1_intensity: 5782
N_scnas: 31
Ms1_scan_range: [167, 170, 199]
Reci_snr: 0.005834449
Ms2_scan_idx: 258
Pmz_offset: 0.000534522
Entropy: 0.9999997615814209
Num Peaks: 13
45.033958435058594 103.0
49.00638198852539 62.0
50.01554489135742 1150.0
51.02396774291992 10445.0
53.03829574584961 532.0
55.01768493652344 46.0
75.0220947265625 62.0
77.03863525390625 21293.0
78.05321502685547 105.0
79.05321502685547 3835.0
95.0495376586914 542.0
105.04338836669922 295.0
107.04924011230469 11422.0

Name: 2-Hydroxybenzylamine
Precursor_mz: 124.0738133
Cas: 932-30-9
Adduct: [M+H]+
Mz: 124.0756904
Comment: Minor
Smiles: NCc1ccccc1O
Formula: C7H9NO
Mix: Alkaloids-pos-mix39
Rt: nan
Rt_apex: 0.572782855
Rt_start: 0.5223
Rt_end: 0.577483333
Ms1_intensity: 4084
N_scnas: 12
Ms1_scan_range: [154, 165, 167]
Reci_snr: 0.008251308
Ms2_scan_idx: 246
Pmz_offset: 0.001032206
Entropy: 0.9966248273849487
Num Peaks: 13
45.03207778930664 163.0
49.005401611328125 49.0
50.014556884765625 622.0
51.02296829223633 4774.0
52.03334426879883 19.0
53.03727340698242 305.0
55.014564514160156 31.0
77.03863525390625 11473.0
78.0457763671875 68.0
79.05322265625 1664.0
95.04680633544922 205.0
105.04339599609375 193.0
107.04779052734375 2737.0

Name: Methacrylamide
Precursor_mz: 86.05849177
Cas: 79-39-0
Adduct: [M+H]+
Mz: 86.0600403
Comment: Major
Smiles: C=C(C)C(N)=O
Formula: C4H7NO
Mix: Alkaloids-pos-mix39
Rt: [0.713]
Rt_apex: 0.70959909
Rt_start: 0.638316667
Rt_end: 0.831416667
Ms1_intensity: 28403
N_scnas: 59
Ms1_scan_range: [182, 204, 242]
Reci_snr: 0.002150848
Ms2_scan_idx: 287
Pmz_offset: 6.51e-05
Entropy: 0.9966863393783569
Num Peaks: 8
41.037696838378906 1741.0
42.0334587097168 987.0
43.04023742675781 390.0
44.012367248535156 1803.0
55.01559829711914 6.0
58.064918518066406 1240.0
69.03028869628906 60.0
86.05821990966797 54.0

Name: Mesaconine
Precursor_mz: 486.271489
Cas: 9/2/92
Adduct: [M+H]+
Mz: 486.2697583
Comment: Major
Smiles: COC[C@@]12CN(C)C3C4[C@H](OC)C1C3([C@@H](OC)C[C@H]2O)[C@@H]1C[C@]2(O)[C@@H](OC)[C@H](O)[C@@]4(O)[C@H]1[C@H]2O
Formula: C24H39NO9
Mix: Alkaloids-pos-mix39
Rt: [1.677]
Rt_apex: 1.677398392
Rt_start: 1.632016667
Rt_end: 1.747333333
Ms1_intensity: 9235055
N_scnas: 19
Ms1_scan_range: [466, 474, 486]
Reci_snr: 0.000105865
Ms2_scan_idx: 728
Pmz_offset: 0.003029079
Entropy: 0.8104853630065918
Num Peaks: 332
41.036861419677734 263.0
43.01820755004883 226.0
44.049678802490234 7000.0
45.03213882446289 711.0
47.047847747802734 155.0
55.01776123046875 242.0
56.05099868774414 158.0
58.063934326171875 588.0
59.04758834838867 218.0
67.05442810058594 194.0
70.06377410888672 577.0
71.04923248291016 465.0
74.0601806640625 658.0
75.04286193847656 1498.0
80.0471420288086 143.0
81.03453063964844 505.0
82.06483459472656 527.0
83.04792022705078 164.0
84.07675170898438 380.0
85.02778625488281 2310.0
86.06095123291016 352.0
88.07356262207031 792.0
91.05372619628906 1406.0
93.06939697265625 338.0
94.06305694580078 2060.0
96.0813217163086 461.0
97.02728271484375 714.0
98.05985260009766 762.0
100.0739974975586 470.0
101.05912017822266 184.0
102.04197692871094 98.0
103.05095672607422 328.0
105.06942749023438 1184.0
106.06143188476562 154.0
107.04938507080078 900.0
108.07693481445312 1833.0
109.06394958496094 1177.0
110.05986785888672 276.0
112.0771713256836 153.0
113.0628433227539 93.0
114.08881378173828 255.0
115.05467224121094 1103.0
116.06239318847656 124.0
117.06996154785156 1190.0
118.06358337402344 120.0
119.04608917236328 445.0
120.07879638671875 651.0
121.06346130371094 965.0
122.05834197998047 282.0
124.07595825195312 927.0
125.02348327636719 3133.0
126.09435272216797 321.0
127.05587005615234 299.0
128.06072998046875 1214.0
129.06637573242188 2905.0
130.0743408203125 135.0
131.08302307128906 1426.0
132.08106994628906 684.0
133.06349182128906 780.0
134.0950469970703 360.0
135.08328247070312 882.0
136.07350158691406 203.0
137.0591278076172 523.0
138.09117126464844 4188.0
139.03773498535156 411.0
140.10377502441406 757.0
141.0671844482422 2197.0
142.0757293701172 435.0
143.08448791503906 1498.0
144.07998657226562 1064.0
145.06202697753906 944.0
146.09658813476562 881.0
147.07864379882812 699.0
148.07254028320312 266.0
149.05950927734375 297.0
150.09100341796875 268.0
151.036376953125 430.0
152.05909729003906 467.0
153.06619262695312 1466.0
154.07833862304688 575.0
155.08682250976562 3332.0
156.09861755371094 234.0
157.06443786621094 863.0
158.09500122070312 1483.0
159.07936096191406 1636.0
160.11471557617188 307.0
161.09642028808594 733.0
162.09007263183594 407.0
163.07064819335938 271.0
164.10630798339844 320.0
165.06951904296875 2389.0
166.07351684570312 743.0
167.08599853515625 2938.0
168.09791564941406 1383.0
169.09829711914062 1360.0
170.0979766845703 2001.0
171.08592224121094 1491.0
172.10987854003906 1407.0
173.09255981445312 1220.0
174.0928497314453 435.0
175.07188415527344 380.0
176.10768127441406 1290.0
177.11663818359375 290.0
178.07791137695312 1084.0
179.08685302734375 2812.0
180.09864807128906 455.0
181.09817504882812 2285.0
182.0985870361328 1097.0
183.07896423339844 1279.0
184.11148071289062 1263.0
185.0953369140625 2534.0
186.09332275390625 493.0
187.1093292236328 1765.0
188.10501098632812 700.0
189.07244873046875 313.0
190.07720947265625 787.0
191.08656311035156 1515.0
192.09275817871094 1067.0
193.09963989257812 1807.0
194.09547424316406 635.0
195.08798217773438 1676.0
196.1125030517578 1667.0
197.0904541015625 1628.0
198.1300811767578 1757.0
199.11106872558594 787.0
200.10836791992188 535.0
201.08824157714844 680.0
202.118408203125 823.0
203.085205078125 1572.0
204.09439086914062 775.0
205.10206604003906 3309.0
206.11424255371094 457.0
207.0784149169922 1254.0
208.1075897216797 526.0
209.09669494628906 3301.0
210.12680053710938 440.0
211.10845947265625 1346.0
212.10874938964844 963.0
213.09092712402344 892.0
214.12054443359375 579.0
215.08883666992188 1159.0
216.0902557373047 422.0
217.10020446777344 1966.0
218.079345703125 421.0
219.0773162841797 1243.0
220.09837341308594 685.0
221.09884643554688 2480.0
222.1225128173828 529.0
223.10870361328125 2480.0
224.0991973876953 499.0
225.09608459472656 1020.0
226.12049865722656 473.0
227.10707092285156 1159.0
228.14028930664062 549.0
229.1057586669922 522.0
230.15415954589844 443.0
231.07907104492188 603.0
232.08706665039062 340.0
233.09512329101562 3502.0
234.10107421875 482.0
235.111328125 2244.0
236.11297607421875 585.0
237.09515380859375 1241.0
238.12051391601562 849.0
239.10684204101562 1387.0
240.1387176513672 435.0
241.12486267089844 783.0
242.11956787109375 279.0
243.10321044921875 350.0
244.1326904296875 242.0
245.09622192382812 1647.0
246.10789489746094 316.0
247.11062622070312 1428.0
248.1441192626953 566.0
249.0867462158203 881.0
250.1177215576172 653.0
251.1063232421875 3040.0
252.1392364501953 714.0
253.1251220703125 1186.0
254.11965942382812 324.0
255.1049346923828 479.0
256.1392822265625 415.0
257.10595703125 273.0
258.1375732421875 399.0
259.10577392578125 245.0
260.1097106933594 241.0
261.0951843261719 1438.0
262.12567138671875 495.0
263.10357666015625 1309.0
264.1357421875 529.0
265.1196594238281 1978.0
266.15350341796875 362.0
267.13427734375 558.0
268.13525390625 490.0
269.12200927734375 565.0
270.1474304199219 343.0
271.1309509277344 261.0
272.1277770996094 194.0
273.0916748046875 420.0
274.1293029785156 181.0
275.113037109375 659.0
276.1381530761719 1058.0
277.1208190917969 921.0
278.10986328125 330.0
279.10540771484375 1302.0
280.1308898925781 642.0
281.1182556152344 973.0
282.14508056640625 570.0
283.135986328125 992.0
284.1617431640625 224.0
285.1087646484375 151.0
286.1452331542969 410.0
287.12884521484375 146.0
289.10833740234375 158.0
290.15679931640625 162.0
291.1065979003906 379.0
292.1298828125 486.0
293.1189270019531 1512.0
294.1481628417969 1357.0
295.1309814453125 838.0
296.1685791015625 354.0
297.1112060546875 486.0
300.1620178222656 416.0
301.1329040527344 150.0
302.17852783203125 90.0
303.13311767578125 192.0
304.1308288574219 873.0
305.1154479980469 443.0
306.15570068359375 105.0
307.12884521484375 399.0
308.15771484375 499.0
309.1537780761719 235.0
310.14898681640625 3494.0
311.1333923339844 2864.0
312.1590270996094 705.0
313.14910888671875 444.0
314.1382751464844 274.0
315.1688537597656 214.0
316.1512145996094 289.0
318.17059326171875 231.0
321.1387634277344 154.0
322.14801025390625 1421.0
323.1336364746094 709.0
324.1611633300781 492.0
325.1422424316406 864.0
326.1755065917969 888.0
327.1570739746094 172.0
328.1579284667969 781.0
329.1450500488281 1013.0
330.1719055175781 593.0
332.1510925292969 144.0
334.1669616699219 633.0
336.1632080078125 1102.0
337.1494140625 143.0
338.1757507324219 116.0
339.16229248046875 202.0
340.15802001953125 1538.0
341.1396789550781 380.0
342.1772766113281 1367.0
343.1566162109375 1759.0
344.1868591308594 701.0
345.1690979003906 114.0
346.165771484375 1138.0
347.1717529296875 217.0
348.1817932128906 1767.0
350.1852722167969 100.0
354.1725158691406 3964.0
355.16357421875 331.0
356.1825256347656 306.0
357.1817321777344 192.0
359.1709899902344 716.0
360.1796875 2508.0
361.1658020019531 2643.0
362.1933288574219 1353.0
363.190185546875 136.0
364.177734375 287.0
368.18170166015625 641.0
370.1662292480469 129.0
371.17401123046875 195.0
372.1858825683594 11775.0
373.158447265625 396.0
374.19744873046875 1150.0
375.18353271484375 255.0
376.1708984375 490.0
378.1904602050781 13015.0
380.20721435546875 776.0
386.2014465332031 4524.0
388.21453857421875 178.0
389.19122314453125 232.0
390.1940612792969 8081.0
391.1982116699219 465.0
392.21197509765625 1551.0
393.19921875 478.0
394.2294921875 500.0
396.2019348144531 458.0
400.21209716796875 206.0
404.2085876464844 62996.0
405.1966857910156 93.0
406.2256164550781 1944.0
408.2051086425781 366.0
410.21783447265625 2085.0
418.2206726074219 2239.0
422.2193603515625 25518.0
423.23211669921875 102.0
436.2356262207031 249956.0
438.2545471191406 214.0
450.2514343261719 489.0
452.2278747558594 154.0
454.2475280761719 68419.0
468.2619934082031 25995.0
484.7731628417969 4637.0
486.27288818359375 1401972.0
487.4185791015625 3434.0
487.5672912597656 3771.0
487.9330139160156 1093.0
488.0570068359375 317.0
488.1717224121094 127.0
488.2802734375 120.0
488.39190673828125 193.0
488.6183166503906 113.0
488.75482177734375 107.0
488.86651611328125 103.0
488.9782409667969 87.0
489.0899658203125 99.0
489.21722412109375 112.0
489.4686584472656 92.0
489.7978210449219 96.0
490.1488342285156 134.0
491.0036315917969 92.0
491.4546203613281 82.0
491.5977478027344 97.0
493.31365966796875 87.0

Name: Mesaconine
Precursor_mz: 508.2495118
Cas: 9/2/92
Adduct: [M+Na]+
Mz: 508.2517025
Comment: Major
Smiles: COC[C@@]12CN(C)C3C4[C@H](OC)C1C3([C@@H](OC)C[C@H]2O)[C@@H]1C[C@]2(O)[C@@H](OC)[C@H](O)[C@@]4(O)[C@H]1[C@H]2O
Formula: C24H39NO9
Mix: Alkaloids-pos-mix39
Rt: [1.677]
Rt_apex: 1.671488333
Rt_start: 1.638683333
Rt_end: 1.740516667
Ms1_intensity: 14129
N_scnas: 17
Ms1_scan_range: [467, 472, 485]
Reci_snr: 0.049876207
Ms2_scan_idx: 716
Pmz_offset: 0.000352137
Entropy: 0.9999999403953552
Num Peaks: 4
426.21697998046875 31.0
430.2187194824219 31.0
440.19879150390625 31.0
508.2525634765625 1288.0

Name: Octahydroisoindole
Precursor_mz: 126.1275235
Cas: 21850-12-4
Adduct: [M+H]+
Mz: 126.1277259
Comment: Major
Smiles: C1CCC2CNCC2C1
Formula: C8H15N
Mix: Alkaloids-pos-mix39
Rt: [1.499]
Rt_apex: 1.498620152
Rt_start: 1.453966667
Rt_end: 1.652183333
Ms1_intensity: 1373160
N_scnas: 32
Ms1_scan_range: [436, 445, 469]
Reci_snr: 2.69e-05
Ms2_scan_idx: 593
Pmz_offset: 0.001771266
Entropy: 0.994780421257019
Num Peaks: 22
41.038673400878906 6693.0
43.05413055419922 1084.0
44.05155944824219 872.0
51.02305603027344 154.0
53.03839111328125 743.0
55.05526351928711 12294.0
56.04996871948242 489.0
65.03926849365234 1787.0
67.05675506591797 16087.0
69.06890106201172 228.0
77.04000091552734 444.0
79.05335998535156 1794.0
80.0584716796875 92.0
81.06993865966797 2017.0
83.08504486083984 541.0
95.08939361572266 93.0
97.09783935546875 273.0
107.08863830566406 289.0
109.10209655761719 2870.0
125.74952697753906 154.0
126.12907409667969 58270.0
126.91043090820312 93.0

Name: D-Asparagine
Precursor_mz: 133.0586464
Cas: 2058-58-4
Adduct: [M+H]+
Mz: 133.0607686
Comment: Major
Smiles: NC(=O)C[C@@H](N)C(=O)O
Formula: C4H8N2O3
Mix: Alkaloids-pos-mix39
Rt: [0.277]
Rt_apex: 0.277515737
Rt_start: 0.241783333
Rt_end: 0.312816667
Ms1_intensity: 3339
N_scnas: 10
Ms1_scan_range: [88, 93, 99]
Reci_snr: 0.176794279
Ms2_scan_idx: 124
Pmz_offset: 0.000543976
Entropy: 0.9826148748397827
Num Peaks: 8
42.0334358215332 62.0
43.01811981201172 277.0
44.04866027832031 197.0
46.027244567871094 154.0
60.0469970703125 31.0
70.02604675292969 319.0
74.02139282226562 1161.0
87.05828094482422 93.0

Name: Anisodamine Hydrobromide
Precursor_mz: 306.1709505
Cas: 55449-49-5
Adduct: [M+H]+
Mz: 306.1699847
Comment: Major
Smiles: CN1[C@H]2C[C@H](OC(=O)[C@H](CO)c3ccccc3)C[C@@H]1[C@@H](O)C2
Formula: C17H23NO4
Mix: Alkaloids-pos-mix39
Rt: [1.885]
Rt_apex: 1.883716785
Rt_start: 1.847
Rt_end: 2.086483333
Ms1_intensity: 3601030
N_scnas: 39
Ms1_scan_range: [501, 507, 541]
Reci_snr: 0.000120399
Ms2_scan_idx: 890
Pmz_offset: 0.002453741
Entropy: 0.9999998807907104
Num Peaks: 49
41.038639068603516 869.0
42.0344123840332 3739.0
43.018184661865234 5335.0
44.05059051513672 5910.0
53.039363861083984 467.0
55.055213928222656 2772.0
56.04991912841797 2781.0
57.057769775390625 199.0
58.066043853759766 14568.0
65.0392074584961 551.0
67.05439758300781 817.0
68.0521011352539 676.0
70.0649185180664 1175.0
72.04630279541016 895.0
73.05274963378906 3103.0
77.03870391845703 3660.0
79.0557861328125 17621.0
80.04835510253906 1250.0
81.07112884521484 10912.0
82.0660629272461 13103.0
83.0504379272461 5319.0
86.05960845947266 221.0
91.05368041992188 47973.0
93.06800079345703 2860.0
94.06572723388672 8374.0
95.0865707397461 203.0
96.0812759399414 5779.0
97.08806610107422 8912.0
98.05980682373047 966.0
99.06431579589844 276.0
103.05375671386719 27604.0
105.06793975830078 478.0
106.06571197509766 1238.0
107.07546997070312 3303.0
109.06536102294922 7989.0
112.07414245605469 391.0
114.0947494506836 338.0
120.0833511352539 775.0
121.06494140625 11078.0
122.09860229492188 49434.0
140.1086883544922 318997.0
141.12046813964844 746.0
156.1038055419922 2286.0
158.11785888671875 10787.0
230.1561737060547 453.0
276.166015625 1908.0
288.16644287109375 1143.0
305.2354431152344 353.0
306.1752014160156 139513.0

Name: Jineol
Precursor_mz: 162.0541441
Cas: 178762-28-2
Adduct: [M+H]+
Mz: 162.0549549
Comment: Major
Smiles: Oc1cnc2c(O)cccc2c1
Formula: C9H7NO2
Mix: Alkaloids-pos-mix39
Rt: [1.521]
Rt_apex: 1.520433439
Rt_start: 1.4192
Rt_end: 1.677083333
Ms1_intensity: 1266416
N_scnas: 44
Ms1_scan_range: [429, 449, 474]
Reci_snr: 0.000932478
Ms2_scan_idx: 608
Pmz_offset: 0.001509214
Entropy: 0.9996734857559204
Num Peaks: 50
50.013675689697266 360.0
51.02207946777344 2100.0
52.01726531982422 312.0
53.00469207763672 470.0
55.02093505859375 175.0
62.015018463134766 1389.0
63.02365493774414 34137.0
64.01571655273438 1008.0
65.03703308105469 1344.0
67.04070281982422 231.0
75.02226257324219 427.0
76.01985168457031 300.0
77.0400390625 17135.0
78.03231811523438 1140.0
79.05589294433594 9775.0
80.04972076416016 824.0
85.00715637207031 217.0
86.01547241210938 503.0
87.02188110351562 1720.0
88.03150177001953 421.0
89.03900909423828 154440.0
90.03626251220703 3277.0
91.05648803710938 251.0
94.0263900756836 1393.0
95.04975128173828 341.0
96.04426574707031 245.0
98.0126953125 363.0
99.02115631103516 1013.0
100.01934051513672 1134.0
102.03497314453125 93.0
104.04924774169922 5848.0
105.03499603271484 2856.0
106.06441497802734 10717.0
107.04947662353516 10114.0
108.0478515625 185.0
114.0319595336914 853.0
115.04273223876953 2597.0
116.05040740966797 41314.0
117.05791473388672 4711.0
118.02709197998047 519.0
126.03301239013672 297.0
132.04409790039062 673.0
133.05389404296875 13165.0
134.06103515625 19857.0
143.03929138183594 1062.0
144.04473876953125 54639.0
161.044921875 943.0
161.5689239501953 410.0
162.0562744140625 98496.0
172.05111694335938 697.0

Name: Cyclo(Tyr-Leu)
Precursor_mz: 277.155112
Cas: 82863-65-8
Adduct: [M+H]+
Mz: 277.154669
Comment: Major
Smiles: CC(C)CC1NC(=O)C(Cc2ccc(O)cc2)NC1=O
Formula: C15H20N2O3
Mix: Alkaloids-pos-mix39
Rt: [2.085]
Rt_apex: 2.085175763
Rt_start: 2.04695
Rt_end: 2.240633333
Ms1_intensity: 897929
N_scnas: 36
Ms1_scan_range: [534, 541, 571]
Reci_snr: 0.000687615
Ms2_scan_idx: 1004
Pmz_offset: 6.25e-05
Entropy: 1.0
Num Peaks: 56
41.036827087402344 839.0
42.03257751464844 196.0
43.054996490478516 659.0
44.049644470214844 2332.0
51.02399826049805 240.0
55.01667785644531 226.0
57.071533203125 154.0
58.028602600097656 553.0
65.04032135009766 214.0
69.07347869873047 211.0
72.04508972167969 3081.0
73.03953552246094 864.0
77.03868103027344 4280.0
79.05326080322266 1134.0
81.07109832763672 534.0
84.08183288574219 1111.0
85.03677368164062 600.0
86.09734344482422 4389.0
91.05364990234375 32635.0
93.06932067871094 717.0
95.0468521118164 303.0
96.03034973144531 237.0
98.09590911865234 397.0
103.05229949951172 544.0
107.0492935180664 81908.0
108.07975769042969 179.0
109.05946350097656 481.0
113.03887939453125 845.0
114.09021759033203 1739.0
117.0653076171875 220.0
118.06501007080078 1006.0
119.05058288574219 12311.0
120.08331298828125 200.0
121.06336212158203 4256.0
122.05669403076172 437.0
126.08952331542969 1518.0
127.05260467529297 360.0
129.10293579101562 193.0
131.04917907714844 349.0
133.04881286621094 253.0
134.06405639648438 154.0
135.0701141357422 860.0
136.07666015625 35487.0
145.06358337402344 308.0
146.0574493408203 731.0
147.04449462890625 360.0
148.07754516601562 1723.0
154.08517456054688 154.0
160.07907104492188 226.0
161.08383178710938 480.0
162.09530639648438 314.0
171.11148071289062 2595.0
204.13833618164062 2571.0
232.1403350830078 473.0
249.16407775878906 537.0
277.15093994140625 678.0

Name: 1,2,3,4-Tetrahydronorharman-1-one
Precursor_mz: 187.0858083
Cas: 17952-82-8
Adduct: [M+H]+
Mz: 187.0865894
Comment: Major
Smiles: O=C1NCCc2c1[nH]c1ccccc21
Formula: C11H10N2O
Mix: Alkaloids-pos-mix40
Rt: [3.057]
Rt_apex: 3.058293635
Rt_start: 3.008116667
Rt_end: 3.116783333
Ms1_intensity: 922582
N_scnas: 15
Ms1_scan_range: [726, 733, 742]
Reci_snr: 0.000104284
Ms2_scan_idx: 1504
Pmz_offset: 0.005091714
Entropy: 0.998822808265686
Num Peaks: 49
42.0352897644043 154.0
51.02197265625 496.0
54.034297943115234 193.0
63.02240753173828 334.0
65.03690338134766 799.0
67.04170989990234 209.0
77.03742218017578 5356.0
79.05323028564453 662.0
81.04454040527344 154.0
89.04015350341797 8700.0
90.04407501220703 3449.0
91.05228424072266 4403.0
92.04725646972656 459.0
93.0571060180664 662.0
101.03643035888672 798.0
102.04611206054688 893.0
103.05226135253906 6330.0
104.04903411865234 1142.0
105.06930541992188 3283.0
106.06275939941406 250.0
113.04033660888672 539.0
114.04371643066406 762.0
115.0545425415039 68899.0
116.04866027832031 5353.0
117.05767822265625 57631.0
118.06497192382812 1599.0
127.05414581298828 1593.0
128.04788208007812 2628.0
129.05506896972656 801.0
130.06459045410156 84925.0
131.06680297851562 1794.0
132.0809326171875 69148.0
140.04714965820312 4470.0
141.05369567871094 923.0
142.06552124023438 18979.0
143.0742645263672 5744.0
144.07981872558594 8960.0
145.0635528564453 92.0
155.06044006347656 212.0
156.06863403320312 576.0
157.07656860351562 3951.0
158.07717895507812 10896.0
159.09156799316406 30141.0
160.07723999023438 154.0
167.0640411376953 211.0
168.06861877441406 644.0
169.07803344726562 3380.0
170.05935668945312 2495.0
187.0880126953125 11075.0

Name: 1,8-Diazabicyclo[5.4.0]undec-7-ene
Precursor_mz: 153.1376483
Cas: 6674-22-2
Adduct: [M+H]+
Mz: 153.138625
Comment: Major
Smiles: C1CCC2=NCCCN2CC1
Formula: C9H16N2
Mix: Alkaloids-pos-mix40
Rt: [1.286]
Rt_apex: 1.283872535
Rt_start: 1.229916667
Rt_end: 1.854866667
Ms1_intensity: 3885621
N_scnas: 144
Ms1_scan_range: [388, 401, 533]
Reci_snr: 1.43e-05
Ms2_scan_idx: 502
Pmz_offset: 0.001613328
Entropy: 0.998582124710083
Num Peaks: 50
41.038570404052734 21076.0
42.03343200683594 12470.0
43.0411262512207 535.0
44.049583435058594 15957.0
51.024932861328125 154.0
53.0372314453125 997.0
54.03424835205078 4661.0
55.053043365478516 30375.0
56.049827575683594 5781.0
57.05449676513672 858.0
58.06488037109375 1289.0
65.03910064697266 93.0
67.04049682617188 447.0
68.04851531982422 3523.0
69.0687255859375 27230.0
70.06245422363281 1095.0
71.07037353515625 205.0
77.03734588623047 3142.0
79.05316162109375 6746.0
80.04822540283203 4033.0
81.05583190917969 3486.0
82.06339263916016 701.0
83.0579833984375 7490.0
84.06885528564453 6363.0
91.05085754394531 154.0
92.05120849609375 93.0
94.06694030761719 1531.0
95.06041717529297 1142.0
96.07974243164062 114090.0
97.07546997070312 9665.0
98.0832748413086 50171.0
99.08930206298828 816.0
108.08108520507812 412.0
109.07544708251953 4668.0
110.08025360107422 213.0
111.09114074707031 77270.0
112.09922790527344 3588.0
122.08599853515625 1251.0
123.09130096435547 8242.0
124.09758758544922 2019.0
125.10797882080078 50697.0
137.10813903808594 10583.0
138.11398315429688 1820.0
152.67547607421875 2113.0
153.13880920410156 674835.0
153.77854919433594 602.0
153.9091033935547 295.0
154.07106018066406 300.0
154.72146606445312 154.0
155.19664001464844 93.0

Name: (-)-Corynoxidine
Precursor_mz: 372.180248
Cas: 57906-85-1
Adduct: [M+H]+
Mz: 372.1805494
Comment: Major
Smiles: COc1cc2c(cc1OC)[C@@H]1Cc3ccc(OC)c(OC)c3C[N@@+]1([O-])CC2
Formula: C21H25NO5
Mix: Alkaloids-pos-mix40
Rt: [2.812]
Rt_apex: 2.810269253
Rt_start: 2.7623
Rt_end: 3.149616667
Ms1_intensity: 11867941
N_scnas: 57
Ms1_scan_range: [689, 696, 747]
Reci_snr: 6.3e-05
Ms2_scan_idx: 1275
Pmz_offset: 0.001993887
Entropy: 0.9871557354927063
Num Peaks: 175
45.03486633300781 210.0
65.03797149658203 817.0
67.05313873291016 285.0
77.03858184814453 11552.0
78.04571533203125 3211.0
79.05316162109375 3253.0
81.06846618652344 357.0
89.03477478027344 509.0
90.0466537475586 303.0
91.05353546142578 52016.0
92.06063079833984 1456.0
93.06920623779297 10509.0
94.03836059570312 168.0
95.04810333251953 1210.0
102.04743194580078 698.0
103.0535888671875 14524.0
104.06182098388672 13524.0
105.0677719116211 16902.0
106.07421875 3309.0
107.08401489257812 5707.0
108.05482482910156 1741.0
109.065185546875 829.0
110.0743637084961 383.0
115.05292510986328 1599.0
116.0621566772461 450.0
117.06819915771484 9675.0
118.07858276367188 6313.0
119.04890441894531 7553.0
120.05701446533203 3559.0
121.0632095336914 66197.0
122.0720443725586 3230.0
123.08039855957031 2527.0
129.05813598632812 1558.0
130.06607055664062 547.0
131.0506134033203 3142.0
132.05499267578125 6076.0
133.06483459472656 9836.0
134.072021484375 19389.0
135.07974243164062 32059.0
136.08795166015625 4379.0
137.0621337890625 2169.0
138.06451416015625 3476.0
139.0738525390625 219.0
145.0617218017578 1651.0
146.06236267089844 21607.0
147.07833862304688 11332.0
148.05345153808594 4138.0
149.0592041015625 444377.0
150.06834411621094 171991.0
151.07400512695312 8273.0
152.04495239257812 1374.0
153.09017944335938 6654.0
157.05355834960938 683.0
158.06820678710938 533.0
159.07017517089844 578.0
160.07354736328125 4826.0
161.08006286621094 5866.0
162.07008361816406 1570.0
163.07568359375 71972.0
164.0843963623047 229124.0
165.09080505371094 167038.0
166.0641326904297 13374.0
167.07113647460938 1582.0
171.07640075683594 169.0
172.03956604003906 277.0
173.0774383544922 180.0
174.0554656982422 12960.0
175.06224060058594 20202.0
176.070068359375 28291.0
177.08079528808594 5110.0
178.08689880371094 2325.0
179.1033935546875 1183.0
180.10015869140625 311.0
181.08648681640625 82019.0
188.0718994140625 474.0
189.08364868164062 1238.0
190.08648681640625 220112.0
191.09393310546875 63568.0
192.10208129882812 68346.0
193.08364868164062 1225.0
194.1185302734375 247.0
202.08607482910156 1219.0
203.09478759765625 969.0
204.09999084472656 2047.0
205.1096954345703 8717.0
206.1138153076172 816.0
208.09906005859375 152522.0
209.1084442138672 179.0
216.0980682373047 242.0
218.112060546875 316.0
219.08309936523438 188.0
220.09584045410156 1161.0
221.09213256835938 203.0
223.1019744873047 217.0
231.07859802246094 226.0
233.10107421875 271.0
234.0919952392578 368.0
235.1022491455078 373.0
236.1038818359375 311.0
237.08819580078125 270.0
238.0918731689453 214.0
242.11253356933594 900.0
246.08758544921875 343.0
247.10130310058594 318.0
248.09719848632812 635.0
249.0840301513672 448.0
250.0861358642578 540.0
251.1013641357422 613.0
252.09860229492188 582.0
253.11122131347656 325.0
254.11019897460938 228.0
259.1007080078125 378.0
260.0978698730469 227.0
261.0901184082031 375.0
262.0865173339844 451.0
263.0962219238281 859.0
264.1055603027344 1892.0
265.1099853515625 1033.0
266.1140441894531 946.0
267.0855712890625 221.0
268.1278381347656 410.0
274.0845947265625 351.0
275.0938415527344 514.0
276.1049499511719 1410.0
277.11090087890625 1491.0
278.1116638183594 1624.0
279.095458984375 853.0
280.13031005859375 1711.0
281.1082763671875 1073.0
282.1162109375 465.0
283.14013671875 298.0
288.09930419921875 242.0
290.10601806640625 338.0
291.0916442871094 688.0
292.10052490234375 2788.0
293.1159362792969 2383.0
294.1138916015625 8698.0
295.1183166503906 1383.0
296.12933349609375 5538.0
297.11785888671875 387.0
298.1080322265625 341.0
299.1192932128906 208.0
304.098388671875 4162.0
305.10260009765625 1520.0
306.11334228515625 5646.0
307.11102294921875 1539.0
308.1300048828125 14552.0
309.13836669921875 6687.0
310.1458740234375 19993.0
311.1302795410156 687.0
314.1525573730469 586.0
319.12939453125 448.0
321.1305847167969 3154.0
322.1171569824219 9480.0
323.120361328125 6523.0
324.1579895019531 93257.0
325.1416015625 1602.0
326.1799011230469 743.0
327.1640319824219 891.0
337.13067626953125 2198.0
338.138916015625 115741.0
339.1538391113281 14580.0
340.1573486328125 35881.0
342.13763427734375 438.0
352.154296875 14469.0
354.1717834472656 680159.0
355.1813659667969 33246.0
356.1526794433594 284.0
357.1597900390625 438.0
371.0408020019531 1423.0
372.18511962890625 549295.0
373.1820983886719 459.0
373.38543701171875 406.0
373.6295471191406 270.0
373.7380676269531 185.0

Name: (-)-Corynoxidine
Precursor_mz: 394.1614589
Cas: 57906-85-1
Adduct: [M+Na]+
Mz: 394.1624936
Comment: Major
Smiles: COc1cc2c(cc1OC)[C@@H]1Cc3ccc(OC)c(OC)c3C[N@@+]1([O-])CC2
Formula: C21H25NO5
Mix: Alkaloids-pos-mix40
Rt: [2.812]
Rt_apex: 2.811496178
Rt_start: 2.769466667
Rt_end: 2.948633333
Ms1_intensity: 17298
N_scnas: 26
Ms1_scan_range: [690, 696, 717]
Reci_snr: 0.015202456
Ms2_scan_idx: 1282
Pmz_offset: 8.11e-05
Entropy: 1.0
Num Peaks: 3
230.07705688476562 280.0
354.1691589355469 93.0
394.1729736328125 545.0

Name: Dihydropalmatine
Precursor_mz: 354.1679089
Cas: 26067-60-7
Adduct: [M+H]+
Mz: 354.1699847
Comment: Major
Smiles: COc1cc2c(cc1OC)C1=Cc3ccc(OC)c(OC)c3CN1CC2
Formula: C21H23NO4
Mix: Alkaloids-pos-mix40
Rt: [2.817, 2.942]
Rt_apex: 2.823177646
Rt_start: 2.769466667
Rt_end: 2.921966667
Ms1_intensity: 42827
N_scnas: 22
Ms1_scan_range: [690, 698, 713]
Reci_snr: 0.009311039
Ms2_scan_idx: 1308
Pmz_offset: 0.000256868
Entropy: 1.0000001192092896
Num Peaks: 16
150.0632781982422 232.0
190.08273315429688 377.0
192.10025024414062 212.0
294.1212463378906 342.0
308.125244140625 259.0
309.1385192871094 212.0
310.14111328125 775.0
320.12310791015625 320.0
321.1332702636719 173.0
322.10723876953125 746.0
323.12054443359375 340.0
324.1227722167969 295.0
338.144287109375 3384.0
339.1592102050781 515.0
352.1623840332031 372.0
354.17462158203125 5634.0

Name: 8-Deacetylyunaconitine
Precursor_mz: 618.3286676
Cas: 93460-55-0
Adduct: [M+H]+
Mz: 618.3272732
Comment: Major
Smiles: CCN1C[C@@]2(COC)[C@H]3[C@@H](OC)C4C1C3([C@@H](OC)C[C@H]2O)[C@@H]1C[C@]2(O)[C@@H](OC)C[C@@]4(O)[C@H]1[C@@H]2OC(=O)c1ccc(OC)cc1
Formula: C33H47NO10
Mix: Alkaloids-pos-mix40
Rt: [3.145]
Rt_apex: 3.147542482
Rt_start: 3.09645
Rt_end: 3.488083333
Ms1_intensity: 12446313
N_scnas: 59
Ms1_scan_range: [739, 747, 799]
Reci_snr: 4.35e-05
Ms2_scan_idx: 1581
Pmz_offset: 0.001052778
Entropy: 0.8875075578689575
Num Peaks: 387
42.03343200683594 149.0
43.01535415649414 144.0
44.04772186279297 218.0
45.032981872558594 422.0
56.04877853393555 1142.0
58.063812255859375 6398.0
59.047462463378906 106.0
68.04967498779297 118.0
71.04790496826172 326.0
72.07954406738281 703.0
75.04513549804688 873.0
77.03611755371094 2973.0
79.05565643310547 557.0
80.04948425292969 279.0
81.06847381591797 114.0
82.06211853027344 188.0
84.07915496826172 1581.0
85.02890014648438 576.0
86.09593200683594 436.0
87.04257202148438 208.0
88.0733871459961 1022.0
91.05220031738281 801.0
92.02293395996094 2576.0
93.06514739990234 103.0
94.06285858154297 399.0
95.04810333251953 627.0
96.07975006103516 1455.0
98.09300994873047 561.0
100.0751953125 428.0
101.06031799316406 231.0
102.0899658203125 2016.0
103.05359649658203 100.0
105.0677719116211 364.0
107.04916381835938 4994.0
108.07817077636719 2240.0
109.063720703125 872.0
110.09497833251953 530.0
111.08226776123047 665.0
112.07694244384766 371.0
113.05813598632812 154.0
114.09307098388672 420.0
115.05593872070312 609.0
117.06668853759766 511.0
118.06944274902344 93.0
120.08162689208984 168.0
121.0632095336914 710.0
122.09685516357422 2451.0
123.07884216308594 445.0
124.0757064819336 302.0
125.05461883544922 261.0
126.09252166748047 185.0
127.05561065673828 154.0
128.10812377929688 574.0
129.06930541992188 1346.0
130.07568359375 129.0
131.0795440673828 577.0
132.07919311523438 123.0
134.0947723388672 306.0
135.04385375976562 439335.0
136.07322692871094 297.0
137.0621337890625 402.0
138.08924865722656 1337.0
139.07220458984375 179.0
140.1068115234375 365.0
141.0702362060547 944.0
143.08251953125 557.0
144.07968139648438 159.0
145.0617218017578 530.0
146.09458923339844 465.0
148.1132354736328 264.0
149.09347534179688 375.0
151.07228088378906 482.0
152.1072540283203 4260.0
153.05372619628906 1053.0
154.1198272705078 2056.0
155.0847625732422 1682.0
156.07550048828125 158.0
157.10281372070312 321.0
158.09291076660156 695.0
159.07904052734375 1040.0
160.1161651611328 352.0
161.09967041015625 452.0
162.09153747558594 306.0
163.07748413085938 233.0
164.10597229003906 135.0
165.07098388671875 493.0
166.07859802246094 304.0
167.08566284179688 1013.0
168.09576416015625 230.0
169.10342407226562 741.0
170.11227416992188 445.0
171.0819091796875 463.0
172.11135864257812 1596.0
173.09959411621094 677.0
174.12213134765625 323.0
175.0771026611328 589.0
176.1091766357422 235.0
177.0938720703125 380.0
178.12623596191406 415.0
179.08836364746094 805.0
180.09828186035156 212.0
181.09593200683594 661.0
182.11715698242188 2683.0
183.08619689941406 463.0
184.11111450195312 2526.0
185.10833740234375 988.0
186.12548828125 1443.0
187.11279296875 603.0
188.1027069091797 244.0
189.08364868164062 192.0
190.12326049804688 1106.0
191.08230590820312 439.0
193.09339904785156 1030.0
195.08563232421875 528.0
196.11013793945312 509.0
197.11566162109375 464.0
198.125732421875 1565.0
199.1086883544922 487.0
200.10398864746094 309.0
201.0838623046875 170.0
202.1199951171875 910.0
203.0847930908203 478.0
204.13809204101562 828.0
205.09963989257812 1016.0
206.11181640625 224.0
207.11636352539062 703.0
208.11122131347656 220.0
209.09425354003906 907.0
210.122314453125 1002.0
211.13046264648438 1086.0
212.14308166503906 1226.0
213.09254455566406 284.0
214.12217712402344 414.0
215.12957763671875 549.0
216.13726806640625 1581.0
217.10183715820312 837.0
218.1555938720703 599.0
219.12049865722656 761.0
220.10833740234375 173.0
221.09840393066406 763.0
222.1283416748047 321.0
223.11036682128906 626.0
224.14706420898438 231.0
225.1293182373047 278.0
226.12005615234375 207.0
227.1002655029297 250.0
228.13771057128906 378.0
229.0989227294922 337.0
230.1515655517578 379.0
231.119140625 519.0
232.0887451171875 148.0
233.09251403808594 322.0
234.11563110351562 269.0
235.11300659179688 1528.0
236.1534881591797 201.0
237.12060546875 638.0
238.1178741455078 170.0
239.11070251464844 277.0
240.14910888671875 243.0
241.12001037597656 238.0
242.1562042236328 340.0
243.16180419921875 447.0
244.17166137695312 305.0
245.10012817382812 777.0
246.14703369140625 195.0
247.11233520507812 1082.0
248.1392059326172 440.0
249.1283416748047 940.0
250.12387084960938 233.0
251.10137939453125 391.0
252.14096069335938 398.0
253.1201629638672 476.0
254.1571807861328 108.0
255.13580322265625 170.0
256.1410217285156 152.0
257.09869384765625 218.0
259.1097717285156 315.0
260.140869140625 257.0
261.12640380859375 405.0
262.1660461425781 176.0
263.1053161621094 974.0
264.14434814453125 282.0
265.12371826171875 587.0
266.1575622558594 519.0
267.140625 598.0
268.1737976074219 107.0
270.14459228515625 148.0
271.1327209472656 169.0
274.1589660644531 369.0
275.1031799316406 407.0
276.1376037597656 480.0
277.1225891113281 1126.0
278.1467590332031 298.0
279.1400146484375 684.0
280.1632080078125 247.0
281.1177062988281 274.0
282.14215087890625 125.0
283.1354064941406 145.0
285.15087890625 139.0
287.1187744140625 115.0
289.1268615722656 228.0
290.1538391113281 440.0
291.1419372558594 538.0
292.1700744628906 598.0
293.1520080566406 186.0
294.1475830078125 630.0
295.1304016113281 1183.0
296.1655578613281 203.0
297.1493225097656 275.0
298.1783142089844 168.0
299.1654052734375 156.0
300.1638488769531 115.0
301.14935302734375 143.0
302.1559753417969 639.0
303.1423034667969 89.0
304.16693115234375 206.0
307.1380615234375 339.0
308.1719055175781 617.0
309.1482238769531 741.0
310.18048095703125 232.0
311.16741943359375 307.0
312.1534729003906 111.0
313.1360778808594 318.0
314.1749572753906 109.0
316.1730651855469 138.0
319.14947509765625 175.0
320.16815185546875 1071.0
321.1557312011719 148.0
322.1725769042969 415.0
323.1607360839844 246.0
324.1908264160156 426.0
325.16436767578125 136.0
326.17230224609375 756.0
327.1614990234375 664.0
328.18524169921875 155.0
329.18768310546875 140.0
330.168701171875 104.0
334.18170166015625 1217.0
338.1750793457031 496.0
339.1719665527344 246.0
340.1987609863281 552.0
341.1726989746094 404.0
342.20513916015625 214.0
344.1913757324219 238.0
345.16839599609375 287.0
352.191162109375 2324.0
353.1741943359375 92.0
354.2034912109375 289.0
356.1871337890625 515.0
357.1995849609375 162.0
358.20550537109375 572.0
360.2162780761719 97.0
366.2044372558594 828.0
368.1890563964844 104.0
370.20330810546875 2150.0
372.2176208496094 189.0
374.2048645019531 138.0
376.2164306640625 481.0
384.2175598144531 2617.0
386.1924133300781 446.0
388.216552734375 202.0
390.22100830078125 182.0
398.242919921875 371.0
400.20849609375 270.0
402.2295837402344 3364.0
415.1518249511719 140.0
416.2391052246094 1150.0
418.20263671875 200.0
420.2369384765625 175.0
421.1637878417969 107.0
426.1927795410156 333.0
429.17333984375 158.0
432.2401123046875 132.0
434.255615234375 1694.0
442.19921875 1935.0
446.2039489746094 180.0
447.1916198730469 380.0
448.2635803222656 174.0
450.2475891113281 309.0
453.20037841796875 134.0
454.2017517089844 200.0
458.19427490234375 88.0
460.2181396484375 497.0
461.2001037597656 351.0
462.21630859375 145.0
463.2124938964844 133.0
464.2066955566406 349.0
466.2256164550781 287.0
468.2215881347656 142.0
470.2279052734375 108.0
472.2171630859375 1184.0
475.21044921875 112.0
476.21746826171875 284.0
478.2285461425781 1245.0
479.201904296875 636.0
480.2284851074219 280.0
484.2254638671875 115.0
486.222412109375 844.0
490.2193298339844 1071.0
491.2327880859375 390.0
492.2348327636719 1534.0
493.2160949707031 143.0
494.2607116699219 513.0
496.24072265625 503.0
498.24346923828125 93.0
504.24444580078125 10014.0
506.2538146972656 475.0
509.2452392578125 112.0
510.2528076171875 5889.0
512.2645874023438 314.0
518.2532958984375 1398.0
521.2478637695312 168.0
522.25439453125 13499.0
523.2490844726562 231.0
524.2639770507812 1713.0
526.2805786132812 629.0
528.268798828125 3433.0
536.26904296875 57298.0
538.279296875 728.0
540.254150390625 212.0
542.2783813476562 814.0
550.2815551757812 810.0
553.2879028320312 171.0
554.2753295898438 40433.0
555.2901000976562 125.0
568.2921142578125 308076.0
569.3029174804688 96.0
570.3179321289062 159.0
584.3075561523438 126.0
586.3038940429688 136997.0
598.2916259765625 113.0
600.322021484375 55433.0
603.3068237304688 126.0
617.2605590820312 89.0
617.39306640625 179.0
617.5499877929688 87.0
617.8324584960938 152.0
618.0382690429688 198.0
618.3348999023438 1146783.0
619.7943725585938 8279.0
620.2032470703125 1671.0
620.343017578125 817.0
620.5912475585938 120.0
620.7276000976562 358.0
620.8639526367188 192.0
620.996826171875 156.0
621.1296997070312 193.0
621.2521362304688 102.0
621.3955688476562 217.0
621.5180053710938 195.0
621.909912109375 159.0
622.0324096679688 152.0
622.1688842773438 180.0
622.448974609375 128.0
622.5855102539062 173.0
622.7080688476562 134.0
622.8236694335938 123.0
622.9707641601562 125.0
623.08984375 138.0
623.2579956054688 136.0
623.82568359375 118.0
624.2814331054688 161.0
624.4778442382812 149.0
624.5935668945312 100.0
624.8180541992188 109.0
624.9583740234375 120.0
625.0741577148438 90.0
625.2776489257812 118.0
625.4671630859375 80.0
625.649658203125 86.0
626.2044067382812 98.0
626.3237915039062 89.0
627.2373046875 85.0
627.792724609375 105.0
628.3062133789062 88.0
628.689697265625 116.0
628.928955078125 93.0
629.25634765625 105.0
629.5767211914062 99.0
630.3868408203125 81.0
631.2680053710938 82.0
632.3756103515625 87.0
632.7391967773438 95.0
633.071044921875 78.0
633.886962890625 79.0
634.2438354492188 79.0
638.2296142578125 85.0

Name: 8-Deacetylyunaconitine
Precursor_mz: 640.3108695
Cas: 93460-55-0
Adduct: [M+Na]+
Mz: 640.3092174
Comment: Major
Smiles: CCN1C[C@@]2(COC)[C@H]3[C@@H](OC)C4C1C3([C@@H](OC)C[C@H]2O)[C@@H]1C[C@]2(O)[C@@H](OC)C[C@@]4(O)[C@H]1[C@@H]2OC(=O)c1ccc(OC)cc1
Formula: C33H47NO10
Mix: Alkaloids-pos-mix40
Rt: [3.145]
Rt_apex: 3.135236124
Rt_start: 3.103283333
Rt_end: 3.2356
Ms1_intensity: 7130
N_scnas: 19
Ms1_scan_range: [740, 745, 760]
Reci_snr: 0.020858569
Ms2_scan_idx: 1576
Pmz_offset: 0.000313853
Entropy: 0.9000261425971985
Num Peaks: 6
141.09024047851562 31.0
384.2120666503906 41.0
398.22052001953125 31.0
416.241943359375 330.0
448.2665710449219 51.0
640.3088989257812 1604.0

Name: Vasicinone
Precursor_mz: 203.0812987
Cas: 486-64-6
Adduct: [M+H]+
Mz: 203.081504
Comment: Major
Smiles: O=c1c2ccccc2nc2n1CC[C@@H]2O
Formula: C11H10N2O2
Mix: Alkaloids-pos-mix40
Rt: [1.916]
Rt_apex: 1.913663062
Rt_start: 1.86285
Rt_end: 2.156033333
Ms1_intensity: 2146211
N_scnas: 56
Ms1_scan_range: [536, 546, 593]
Reci_snr: 0.000234504
Ms2_scan_idx: 779
Pmz_offset: 0.002129133
Entropy: 0.9938632845878601
Num Peaks: 68
41.037681579589844 385.0
50.01651382446289 349.0
51.02294158935547 5182.0
52.01813507080078 260.0
54.03529357910156 12934.0
55.017662048339844 311.0
56.01307678222656 214.0
57.0333137512207 154.0
63.022369384765625 341.0
64.03014373779297 92.0
65.0379867553711 2010.0
66.0331802368164 1941.0
67.04396057128906 478.0
75.02206420898438 1182.0
76.0306625366211 236.0
77.0385971069336 25045.0
78.03334045410156 178.0
79.02947998046875 280.0
81.0457534790039 154.0
82.03036499023438 35596.0
87.02164459228516 93.0
88.01678466796875 93.0
89.03877258300781 3532.0
90.03336334228516 1593.0
91.04151153564453 605.0
92.04853820800781 1776.0
95.04949951171875 315.0
101.03636169433594 522.0
102.03611755371094 7655.0
103.05504608154297 9395.0
104.05183410644531 2569.0
105.03471374511719 2150.0
107.0245132446289 365.0
113.03877258300781 1365.0
114.0301513671875 432.0
115.0544662475586 7741.0
116.05462646484375 2936.0
117.05760192871094 5176.0
118.06489562988281 827.0
119.03362274169922 352.0
120.0478286743164 1320.0
128.0509796142578 9866.0
129.05178833007812 5103.0
130.06451416015625 56741.0
131.05226135253906 1341.0
132.04212951660156 889.0
140.0503692626953 20819.0
141.0569305419922 338.0
142.05706787109375 2113.0
143.07247924804688 2749.0
144.04603576660156 1551.0
145.0499267578125 1608.0
146.06069946289062 461.0
147.0545654296875 378.0
155.0620880126953 7830.0
156.0685272216797 8413.0
157.07823181152344 18900.0
158.06118774414062 17235.0
159.06137084960938 93.0
166.05332946777344 584.0
167.0657501220703 18569.0
168.0648651123047 928.0
175.06414794921875 92.0
183.05775451660156 891.0
184.06736755371094 24678.0
185.0740203857422 335078.0
187.08212280273438 92.0
203.0868377685547 32640.0

Name: N-trans-caffeoyltyramine
Precursor_mz: 300.1188355
Cas: 103188-48-3
Adduct: [M+H]+
Mz: 300.1230345
Comment: Major
Smiles: O=C(/C=C/c1ccc(O)c(O)c1)NCCc1ccc(O)cc1
Formula: C17H17NO4
Mix: Alkaloids-pos-mix41
Rt: [1.774, 1.886]
Rt_apex: 1.350218984
Rt_start: 1.303533333
Rt_end: 1.445583333
Ms1_intensity: 16008
N_scnas: 27
Ms1_scan_range: [417, 426, 445]
Reci_snr: 0.016485171
Ms2_scan_idx: 538
Pmz_offset: 0.000575184
Entropy: 0.9999999403953552
Num Peaks: 14
94.04410552978516 92.0
96.05392456054688 93.0
107.03499603271484 123.0
108.04058837890625 154.0
123.06834411621094 154.0
134.0448455810547 382.0
135.0279998779297 154.0
149.04598999023438 785.0
150.0396270751953 181.0
151.04690551757812 289.0
166.07191467285156 2158.0
167.07351684570312 964.0
168.07447814941406 953.0
300.1259765625 93.0

Name: 3-Methylcarbazole
Precursor_mz: 182.0951869
Cas: 4630-20-0
Adduct: [M+H]+
Mz: 182.0964258
Comment: Major
Smiles: Cc1ccc2[nH]c3ccccc3c2c1
Formula: C13H11N
Mix: Alkaloids-pos-mix41
Rt: [4.864]
Rt_apex: 4.860887581
Rt_start: 4.81485
Rt_end: 5.0168
Ms1_intensity: 42049
N_scnas: 47
Ms1_scan_range: [1122, 1131, 1170]
Reci_snr: 0.00179255
Ms2_scan_idx: 2224
Pmz_offset: 0.000833265
Entropy: 0.9915549159049988
Num Peaks: 23
89.03643798828125 70.0
90.04833221435547 19.0
102.04499816894531 19.0
113.0391845703125 102.0
114.04405975341797 79.0
115.05187225341797 153.0
117.05802917480469 71.0
127.05610656738281 31.0
128.04827880859375 39.0
139.05455017089844 1551.0
140.0475616455078 815.0
152.0594024658203 126.0
153.06996154785156 46.0
164.04730224609375 41.0
165.0572052001953 51.0
166.0666046142578 3248.0
167.07362365722656 11258.0
178.0632781982422 37.0
179.07029724121094 76.0
180.08016967773438 458.0
181.0909881591797 196.0
181.5407257080078 19.0
182.09515380859375 1141.0

Name: Thiolutin
Precursor_mz: 250.9917363
Cas: 87-11-6
Adduct: [M+Na]+
Mz: 250.9919406
Comment: Major
Smiles: CC(=O)Nc1c2sscc-2n(C)c1=O
Formula: C8H8N2O2S2
Mix: Alkaloids-pos-mix41
Rt: [2.307]
Rt_apex: 2.306231349
Rt_start: 2.2652
Rt_end: 2.37385
Ms1_intensity: 130942
N_scnas: 15
Ms1_scan_range: [591, 597, 607]
Reci_snr: 0.000176641
Ms2_scan_idx: 1097
Pmz_offset: 0.002476547
Entropy: 1.0
Num Peaks: 4
81.0485610961914 31.0
86.00252532958984 62.0
132.93264770507812 31.0
251.00009155273438 195.0

Name: Colchicoside
Precursor_mz: 548.2155291
Cas: 477-29-2
Adduct: [M+H]+
Mz: 548.2126373
Comment: Major
Smiles: COc1c(O[C@@H]2O[C@H](CO)[C@@H](O)[C@H](O)[C@H]2O)cc2c(c1OC)-c1ccc(OC)c(=O)cc1[C@@H](NC(C)=O)CC2
Formula: C27H33NO11
Mix: Alkaloids-pos-mix41
Rt: [1.931]
Rt_apex: 1.928226904
Rt_start: 1.853066667
Rt_end: 2.065716667
Ms1_intensity: 1518010
N_scnas: 31
Ms1_scan_range: [529, 540, 561]
Reci_snr: 7.36e-05
Ms2_scan_idx: 818
Pmz_offset: 0.001479508
Entropy: 0.9837707281112671
Num Peaks: 72
165.0734405517578 210.0
167.07362365722656 245.0
205.0743408203125 188.0
207.08084106445312 544.0
211.0782928466797 243.0
220.09881591796875 631.0
224.0870361328125 495.0
225.08811950683594 342.0
227.0694580078125 169.0
235.07522583007812 1595.0
236.08758544921875 251.0
237.08050537109375 215.0
239.1029815673828 952.0
240.07395935058594 210.0
241.08175659179688 257.0
249.09390258789062 231.0
251.0779266357422 353.0
252.07957458496094 1179.0
253.09439086914062 320.0
255.10096740722656 246.0
263.0699768066406 1339.0
264.07470703125 446.0
265.0836486816406 153.0
266.09222412109375 179.0
267.10272216796875 4523.0
268.11053466796875 612.0
269.0857238769531 545.0
271.0968322753906 1284.0
278.07769775390625 190.0
279.08721923828125 320.0
280.0915222167969 747.0
281.0811767578125 563.0
283.09405517578125 280.0
284.1221008300781 1191.0
285.1141052246094 471.0
286.09832763671875 287.0
287.12469482421875 248.0
288.09808349609375 166.0
293.1075134277344 343.0
294.1222839355469 479.0
295.1002502441406 4222.0
296.1087951660156 2479.0
297.0827941894531 1130.0
298.1092529296875 276.0
299.1277770996094 1559.0
301.1116027832031 261.0
302.13037109375 351.0
309.11248779296875 363.0
310.10760498046875 597.0
311.1216735839844 1114.0
312.12249755859375 4401.0
314.10906982421875 545.0
315.1221923828125 254.0
316.11944580078125 410.0
325.1302795410156 597.0
326.1381530761719 2097.0
327.1222229003906 5131.0
328.12811279296875 390.0
329.1253662109375 690.0
336.1304626464844 323.0
337.1191711425781 165.0
338.0912780761719 192.0
340.153564453125 363.0
343.1495361328125 319.0
344.151123046875 15205.0
353.128173828125 927.0
354.1441955566406 1148.0
368.15283203125 6186.0
371.1396484375 283.0
384.9649658203125 349.0
386.1664123535156 121635.0
548.2183837890625 29914.0

Name: Colchicoside
Precursor_mz: 570.1931873
Cas: 477-29-2
Adduct: [M+Na]+
Mz: 570.1945816
Comment: Major
Smiles: COc1c(O[C@@H]2O[C@H](CO)[C@@H](O)[C@H](O)[C@H]2O)cc2c(c1OC)-c1ccc(OC)c(=O)cc1[C@@H](NC(C)=O)CC2
Formula: C27H33NO11
Mix: Alkaloids-pos-mix41
Rt: [1.931]
Rt_apex: 1.937352481
Rt_start: 1.892883333
Rt_end: 2.065716667
Ms1_intensity: 60464
N_scnas: 25
Ms1_scan_range: [535, 542, 561]
Reci_snr: 0.006420063
Ms2_scan_idx: 823
Pmz_offset: 0.000719805
Entropy: 1.0
Num Peaks: 9
347.1123352050781 154.0
365.13787841796875 169.0
378.0875549316406 93.0
380.15057373046875 2070.0
392.1294250488281 92.0
393.1332702636719 92.0
408.1435852050781 3341.0
542.208740234375 1525.0
570.1996459960938 6783.0

Name: Tetrahydroharmine
Precursor_mz: 217.1337565
Cas: 17019-01-1
Adduct: [M+H]+
Mz: 217.1335396
Comment: Major
Smiles: COc1ccc2c3c([nH]c2c1)C(C)NCC3
Formula: C13H16N2O
Mix: Alkaloids-pos-mix41
Rt: [2.167]
Rt_apex: 2.165642389
Rt_start: 2.124866667
Rt_end: 2.231533333
Ms1_intensity: 1616214
N_scnas: 15
Ms1_scan_range: [570, 576, 586]
Reci_snr: 0.037308676
Ms2_scan_idx: 995
Pmz_offset: 0.000121697
Entropy: 0.9994016289710999
Num Peaks: 71
42.032711029052734 1004.0
45.03413009643555 92.0
51.023162841796875 220.0
77.03771209716797 2616.0
78.04856872558594 338.0
79.0560302734375 199.0
80.04985809326172 790.0
89.03519439697266 1670.0
90.04574584960938 717.0
91.05397033691406 2427.0
93.05475616455078 554.0
94.06330871582031 985.0
101.03681945800781 521.0
102.04367065429688 1041.0
103.05408477783203 12405.0
104.05086517333984 1857.0
105.0567626953125 728.0
106.06605529785156 234.0
107.04967498779297 477.0
108.05388641357422 288.0
114.0411605834961 256.0
115.05348205566406 13742.0
116.06120300292969 1397.0
117.05813598632812 6561.0
118.0623779296875 1501.0
119.0801010131836 257.0
121.06533813476562 1092.0
123.06542205810547 1309.0
127.05622100830078 3830.0
128.05950927734375 6392.0
129.06832885742188 8158.0
130.06509399414062 109350.0
131.07374572753906 5980.0
132.04434204101562 3919.0
133.04928588867188 1035.0
139.05467224121094 873.0
140.05931091308594 858.0
141.0642547607422 2138.0
142.0644073486328 10308.0
143.07313537597656 8252.0
144.08206176757812 46853.0
145.08778381347656 108943.0
146.05967712402344 2579.0
147.06884765625 2269.0
148.0746612548828 1408.0
152.06298828125 212.0
153.068359375 249.0
154.06309509277344 11605.0
155.06979370117188 4390.0
156.08151245117188 45543.0
157.08950805664062 55680.0
158.06015014648438 98901.0
159.06741333007812 4751.0
160.077880859375 4469.0
161.08975219726562 1048.0
167.0737762451172 8007.0
169.0896453857422 14188.0
170.06002807617188 37445.0
171.0753936767578 1134.0
172.0772247314453 10548.0
173.0838165283203 248768.0
174.09149169921875 9150.0
183.06809997558594 6256.0
184.07582092285156 14149.0
185.08441162109375 43413.0
186.08810424804688 1114.0
187.0983428955078 3151.0
188.1074676513672 322919.0
198.09312438964844 7732.0
199.1037139892578 998.0
200.1089324951172 85511.0

Name: Anisodamine
Precursor_mz: 306.1700457
Cas: 55869-99-3
Adduct: [M+H]+
Mz: 306.1699847
Comment: Major
Smiles: CN1[C@H]2C[C@H](OC(=O)[C@H](CO)c3ccccc3)C[C@@H]1[C@@H](O)C2
Formula: C17H23NO4
Mix: Alkaloids-pos-mix41
Rt: [1.774, 1.886]
Rt_apex: 1.890927377
Rt_start: 1.846233333
Rt_end: 2.05905
Ms1_intensity: 2777561
N_scnas: 31
Ms1_scan_range: [528, 535, 560]
Reci_snr: 0.000147179
Ms2_scan_idx: 773
Pmz_offset: 0.000887783
Entropy: 1.0000001192092896
Num Peaks: 48
41.038692474365234 232.0
42.03446578979492 3349.0
43.018245697021484 3819.0
44.04971694946289 4548.0
55.054256439208984 1318.0
56.0489501953125 2517.0
57.056793212890625 239.0
58.066131591796875 9868.0
65.03817749023438 432.0
67.05335235595703 805.0
68.04757690429688 542.0
70.06502532958984 1480.0
72.04641723632812 663.0
73.05286407470703 2468.0
77.03882598876953 5303.0
79.055908203125 13983.0
80.04597473144531 1015.0
81.06873321533203 14760.0
82.06619262695312 13720.0
83.0492935180664 5728.0
84.0807113647461 391.0
91.05516815185547 46921.0
93.06951141357422 3247.0
94.06452178955078 9509.0
95.0826187133789 247.0
96.08143615722656 4625.0
97.0882339477539 8805.0
98.06136322021484 1057.0
103.05535125732422 27416.0
105.07242584228516 739.0
106.0658950805664 1015.0
107.07274627685547 3300.0
109.06407928466797 6855.0
112.07582092285156 473.0
114.08744812011719 234.0
120.07894134521484 997.0
121.06515502929688 12583.0
122.09880828857422 49815.0
140.1089324951172 327848.0
141.11737060546875 1082.0
156.1058349609375 1473.0
158.11990356445312 8759.0
230.1502227783203 465.0
275.15997314453125 200.0
276.161865234375 1556.0
288.16461181640625 882.0
305.23602294921875 464.0
306.17333984375 145260.0

Name: Anisodamine
Precursor_mz: 306.1714182
Cas: 55869-99-3
Adduct: [M+H]+
Mz: 306.1699847
Comment: isomer
Smiles: CN1[C@H]2C[C@H](OC(=O)[C@H](CO)c3ccccc3)C[C@@H]1[C@@H](O)C2
Formula: C17H23NO4
Mix: Alkaloids-pos-mix41
Rt: [1.774, 1.886]
Rt_apex: 1.775817976
Rt_start: 1.734233333
Rt_end: 1.846233333
Ms1_intensity: 249121
N_scnas: 18
Ms1_scan_range: [509, 517, 528]
Reci_snr: 0.001517768
Ms2_scan_idx: 702
Pmz_offset: 0.002260272
Entropy: 1.0
Num Peaks: 43
41.039554595947266 110.0
42.03443145751953 452.0
43.01728439331055 787.0
44.049678802490234 756.0
51.02303695678711 62.0
53.0404167175293 62.0
55.053165435791016 256.0
56.04890060424805 485.0
58.06501007080078 1440.0
65.03925323486328 62.0
67.054443359375 124.0
68.04751586914062 97.0
70.0661392211914 128.0
72.04277801513672 77.0
73.05039978027344 466.0
77.03752136230469 853.0
79.0545883178711 2055.0
80.04966735839844 187.0
81.0699234008789 1520.0
82.06484985351562 1605.0
83.04794311523438 1103.0
91.05374908447266 5314.0
93.0707778930664 479.0
94.06307983398438 1434.0
96.07997131347656 628.0
97.08814239501953 1213.0
98.06266021728516 77.0
103.05525970458984 4220.0
105.0680160522461 101.0
106.06291198730469 208.0
107.07119750976562 634.0
109.06398010253906 966.0
120.0819091796875 151.0
121.0634994506836 1823.0
122.09715270996094 6228.0
140.10548400878906 26046.0
141.12225341796875 89.0
156.10043334960938 277.0
158.1179962158203 1102.0
230.16065979003906 111.0
276.1569519042969 273.0
288.166748046875 101.0
306.1755065917969 9958.0

Name: 1-Methoxycarbonyl-β-carboline
Precursor_mz: 227.0815652
Cas: 3464-66-2
Adduct: [M+H]+
Mz: 227.081504
Comment: Major
Smiles: COC(=O)c1nccc2c1[nH]c1ccccc12
Formula: C13H10N2O2
Mix: Alkaloids-pos-mix41
Rt: [2.736]
Rt_apex: 2.730302138
Rt_start: 2.690666667
Rt_end: 2.92315
Ms1_intensity: 4332023
N_scnas: 37
Ms1_scan_range: [660, 666, 698]
Reci_snr: 0.003240233
Ms2_scan_idx: 1347
Pmz_offset: 0.001947701
Entropy: 0.9897058010101318
Num Peaks: 39
63.02373123168945 931.0
65.03937530517578 621.0
75.0223617553711 295.0
77.03767395019531 92.0
85.00209045410156 454.0
86.01558685302734 1176.0
87.0219955444336 4333.0
88.0184555053711 1557.0
89.03913116455078 4341.0
90.0350570678711 935.0
99.00733184814453 123.0
100.01807403564453 123.0
101.03677368164062 857.0
102.04362487792969 252.0
112.0313720703125 287.0
113.03923034667969 83257.0
114.03661346435547 22684.0
115.05192565917969 4852.0
116.04754638671875 3728.0
127.04193115234375 277.0
129.04275512695312 92.0
138.03378295898438 1124.0
139.04136657714844 8884.0
140.04928588867188 1022156.0
141.0458526611328 6164.0
144.05337524414062 92.0
157.05601501464844 171.0
158.05831909179688 281.0
159.05494689941406 656.0
165.04466247558594 2332.0
166.0522003173828 48891.0
167.06100463867188 1362090.0
168.03282165527344 1115.0
169.05125427246094 1640.0
185.0709686279297 159984.0
187.0675506591797 191.0
195.0551300048828 75856.0
213.0648193359375 7930.0
227.08224487304688 48576.0

Name: Lepidiline A
Precursor_mz: 277.169916
Cas: 596093-98-0
Adduct: [M]+
Mz: 277.1699251
Comment: Major
Smiles: Cc1c(C)[n+](Cc2ccccc2)cn1Cc1ccccc1
Formula: C19H21N2+
Mix: Alkaloids-pos-mix41
Rt: [5.601]
Rt_apex: 3.240649041
Rt_start: 3.19365
Rt_end: 3.744183333
Ms1_intensity: 12574349
N_scnas: 104
Ms1_scan_range: [751, 759, 856]
Reci_snr: 3.99e-05
Ms2_scan_idx: 1582
Pmz_offset: 0.00227227
Entropy: 0.864891767501831
Num Peaks: 73
41.03782272338867 4370.0
42.03358840942383 437.0
43.05325698852539 59.0
44.04788589477539 93.0
50.014705657958984 343.0
51.02312088012695 1110.0
54.034454345703125 59.0
62.01396942138672 298.0
63.0225944519043 2253.0
65.03822326660156 179577.0
68.04762268066406 441.0
69.05616760253906 454.0
70.06390380859375 189.0
77.03765106201172 75.0
82.06371307373047 66.0
89.03909301757812 742.0
91.05657196044922 1252016.0
94.07684326171875 100.0
95.06079864501953 773.0
97.07447052001953 718.0
103.05400085449219 388.0
104.04935455322266 170.0
105.06819152832031 153.0
107.05830383300781 62.0
109.07588195800781 9313.0
115.05339050292969 499.0
119.08460235595703 247.0
128.0609893798828 1169.0
130.06500244140625 463.0
131.07203674316406 142.0
132.08132934570312 59.0
133.10098266601562 212.0
141.07080078125 545.0
142.06764221191406 70.0
152.0628662109375 113.0
153.0682373046875 378.0
155.05918884277344 80.0
165.06983947753906 2768.0
166.0792694091797 3467.0
167.06637573242188 266.0
168.08006286621094 652.0
169.0767364501953 453.0
170.08184814453125 377.0
171.09178161621094 716.0
178.07264709472656 192.0
179.08534240722656 694.0
180.0914764404297 75.0
181.10232543945312 6999.0
184.09852600097656 545.0
185.107177734375 138364.0
186.11476135253906 12773.0
187.1193084716797 152.0
197.1085968017578 197.0
199.12335205078125 749.0
276.3276672363281 4400.0
277.17279052734375 733322.0
278.03558349609375 2251.0
278.14324951171875 2383.0
278.426513671875 741.0
278.60919189453125 95.0
278.7778625488281 171.0
278.9559631347656 82.0
279.30999755859375 99.0
279.6548767089844 85.0
279.84735107421875 74.0
280.1902160644531 58.0
280.4604187011719 79.0
280.6531677246094 104.0
280.7730712890625 70.0
280.90948486328125 87.0
281.05767822265625 65.0
281.3894958496094 67.0
283.6445007324219 55.0

Name: Quinine sulfate dihydrate
Precursor_mz: 325.1906453
Cas: 6119-70-6
Adduct: [M+H]+
Mz: 325.1910545
Comment: Major
Smiles: C=C[C@H]1CN2CC[C@H]1C[C@H]2[C@H](O)c1ccnc2ccc(OC)cc12
Formula: C20H24N2O2
Mix: Alkaloids-pos-mix41
Rt: [2.074]
Rt_apex: 2.072265402
Rt_start: 1.99805
Rt_end: 2.218366667
Ms1_intensity: 1507909
N_scnas: 32
Ms1_scan_range: [551, 562, 584]
Reci_snr: 0.000506832
Ms2_scan_idx: 936
Pmz_offset: 0.000316554
Entropy: 1.0000001192092896
Num Peaks: 145
41.03699493408203 775.0
42.033660888671875 501.0
44.04982376098633 1373.0
53.03752517700195 894.0
55.05438995361328 776.0
56.05013656616211 249.0
65.03720092773438 311.0
67.0546646118164 1370.0
68.04889678955078 332.0
69.05744934082031 204.0
70.06401824951172 236.0
77.03655242919922 805.0
79.05360412597656 6309.0
80.04867553710938 1424.0
81.0701904296875 6665.0
82.06385040283203 1794.0
84.0809097290039 207.0
91.0540542602539 1010.0
93.06702423095703 745.0
94.06475067138672 1023.0
95.06916809082031 472.0
96.08029174804688 646.0
105.06693267822266 496.0
106.06470489501953 497.0
107.08753204345703 199.0
108.08023834228516 1302.0
109.0863265991211 151.0
110.09413146972656 1469.0
115.0535888671875 531.0
116.05072784423828 86.0
117.05824279785156 1957.0
119.07255554199219 100.0
120.07769775390625 361.0
122.09910583496094 736.0
124.11237335205078 485.0
129.05409240722656 229.0
130.06842041015625 136.0
131.07225036621094 306.0
132.07672119140625 244.0
134.09878540039062 1221.0
135.1033477783203 238.0
136.11001586914062 919.0
138.12962341308594 476.0
141.05438232421875 263.0
142.06454467773438 336.0
143.06991577148438 807.0
144.0805206298828 385.0
145.05410766601562 1079.0
146.06320190429688 207.0
148.1106719970703 98.0
154.06671142578125 951.0
155.07168579101562 1144.0
156.0816650390625 370.0
157.0509490966797 310.0
158.060302734375 782.0
159.07110595703125 736.0
160.0762481689453 12369.0
162.09603881835938 411.0
166.12115478515625 1577.0
167.0757293701172 663.0
168.08035278320312 348.0
169.05331420898438 947.0
170.0675048828125 434.0
171.07005310058594 544.0
172.07737731933594 7922.0
173.08212280273438 1775.0
174.09165954589844 1436.0
176.0710906982422 171.0
180.0804901123047 281.0
181.09320068359375 254.0
182.0614013671875 568.0
183.06826782226562 1214.0
184.07789611816406 5117.0
185.08457946777344 391.0
186.09593200683594 3433.0
187.10043334960938 155.0
188.07107543945312 644.0
189.07510375976562 810.0
191.06982421875 94.0
192.08181762695312 196.0
193.0886688232422 246.0
194.09425354003906 285.0
195.06715393066406 325.0
196.07591247558594 742.0
197.0852813720703 571.0
198.08935546875 2672.0
199.0880584716797 562.0
200.07537841796875 360.0
202.08326721191406 691.0
204.0811309814453 183.0
205.09078979492188 150.0
206.09890747070312 216.0
207.10140991210938 190.0
208.07395935058594 272.0
209.08328247070312 287.0
210.0909881591797 1336.0
211.0929412841797 466.0
212.10751342773438 458.0
213.10812377929688 307.0
214.09056091308594 528.0
218.1009063720703 125.0
219.09890747070312 176.0
220.07838439941406 228.0
221.11221313476562 264.0
222.09616088867188 339.0
223.09487915039062 252.0
224.104248046875 724.0
225.1095733642578 366.0
226.12557983398438 861.0
227.12484741210938 632.0
232.11575317382812 131.0
233.11529541015625 175.0
234.08908081054688 362.0
235.09071350097656 159.0
236.10093688964844 507.0
237.10470581054688 560.0
238.12574768066406 321.0
239.11643981933594 384.0
240.13963317871094 141.0
247.08950805664062 93.0
248.1074981689453 370.0
249.11871337890625 304.0
250.1208953857422 406.0
251.11618041992188 2166.0
252.13128662109375 713.0
253.13279724121094 2888.0
254.15643310546875 233.0
260.1016540527344 106.0
262.1266784667969 257.0
263.109130859375 195.0
264.1413269042969 1196.0
265.1366882324219 637.0
266.1522216796875 287.0
268.17535400390625 151.0
276.13922119140625 160.0
277.14056396484375 237.0
278.153076171875 619.0
279.148681640625 1101.0
282.1532287597656 286.0
290.1483459472656 96.0
291.1460266113281 195.0
296.16729736328125 337.0
297.1946105957031 324.0
307.18414306640625 6230.0
325.1941223144531 26791.0

Name: PhIP
Precursor_mz: 225.1112752
Cas: 105650-23-5
Adduct: [M+H]+
Mz: 225.1134729
Comment: Major
Smiles: Cn1c(N)nc2ncc(-c3ccccc3)cc21
Formula: C13H12N4
Mix: Alkaloids-pos-mix42
Rt: [1.871]
Rt_apex: 2.366818878
Rt_start: 2.30825
Rt_end: 2.609716667
Ms1_intensity: 5498
N_scnas: 55
Ms1_scan_range: [629, 642, 685]
Reci_snr: 0.017729679
Ms2_scan_idx: 985
Pmz_offset: 0.000363448
Entropy: 0.9558336734771729
Num Peaks: 11
114.04277801513672 46.0
130.06204223632812 77.0
140.04949951171875 141.0
154.06500244140625 46.0
155.06297302246094 102.0
167.05581665039062 94.0
168.0640106201172 128.0
183.07778930664062 101.0
209.081298828125 214.0
210.08900451660156 1001.0
225.11172485351562 1637.0

Name: Pegamine
Precursor_mz: 205.0960827
Cas: 31431-93-3
Adduct: [M+H]+
Mz: 205.0971541
Comment: Major
Smiles: O=c1nc(CCCO)[nH]c2ccccc12
Formula: C11H12N2O2
Mix: Alkaloids-pos-mix42
Rt: [1.871]
Rt_apex: 1.870724607
Rt_start: 1.825483333
Rt_end: 2.122666667
Ms1_intensity: 2537670
N_scnas: 55
Ms1_scan_range: [534, 541, 590]
Reci_snr: 0.000518512
Ms2_scan_idx: 758
Pmz_offset: 0.001039299
Entropy: 0.9798958897590637
Num Peaks: 57
41.038753509521484 7476.0
42.03361892700195 847.0
51.023162841796875 1216.0
63.020423889160156 506.0
65.03828430175781 12238.0
66.03347778320312 172.0
68.04884338378906 13106.0
69.03290557861328 2072.0
75.02119445800781 518.0
76.02978515625 804.0
77.03772735595703 7643.0
89.03653717041016 4090.0
90.03245544433594 5611.0
91.05265045166016 1248.0
92.0489730834961 31299.0
93.05342864990234 328.0
94.02794647216797 177.0
95.05131530761719 205.0
102.03376770019531 4175.0
104.04660034179688 2246.0
105.03089904785156 1252.0
114.04568481445312 220.0
115.05351257324219 37931.0
116.0476303100586 9176.0
117.0460205078125 2769.0
118.0639419555664 2001.0
119.03572845458984 2044.0
120.04379272460938 30449.0
127.051513671875 216.0
128.04843139648438 1007.0
129.04444885253906 6942.0
130.02833557128906 4898.0
131.059326171875 835.0
132.04278564453125 5697.0
134.06295776367188 231.0
140.04441833496094 1131.0
141.05763244628906 527.0
142.064453125 10623.0
143.06982421875 639.0
144.07875061035156 6928.0
145.038818359375 7436.0
146.05972290039062 11135.0
147.0518798828125 208.0
152.0491943359375 183.0
155.05935668945312 358.0
156.07106018066406 93.0
158.06021118164062 299.0
159.05685424804688 1545.0
160.06373596191406 3715.0
161.07022094726562 1155.0
168.0693359375 824.0
169.0751190185547 8801.0
173.07095336914062 2857.0
184.0606689453125 93.0
187.08689880371094 215320.0
188.0690460205078 6893.0
205.0886688232422 15406.0

Name: Virginiamycin M1
Precursor_mz: 526.25591
Cas: 21411-53-0
Adduct: [M+H]+
Mz: 526.2547769
Comment: Major
Smiles: CC1=C\[C@@H](O)CC(=O)Cc2nc(co2)C(=O)N2CCC=C2C(=O)O[C@H](C(C)C)[C@H](C)/C=C/C(=O)NC/C=C\1
Formula: C28H35N3O7
Mix: Alkaloids-pos-mix42
Rt: [3.864]
Rt_apex: 3.856056239
Rt_start: 3.6101
Rt_end: 4.238933333
Ms1_intensity: 3680815
N_scnas: 117
Ms1_scan_range: [859, 909, 977]
Reci_snr: 1.47e-05
Ms2_scan_idx: 1708
Pmz_offset: 0.001801096
Entropy: 0.9960736036300659
Num Peaks: 194
41.03876495361328 960.0
43.05422592163086 291.0
55.05331802368164 408.0
67.05577850341797 4682.0
68.0477066040039 804.0
69.06907653808594 495.0
77.03897857666016 1398.0
79.05481719970703 1445.0
81.07015991210938 3159.0
82.06636047363281 208.0
83.08655548095703 372.0
91.05133819580078 2455.0
93.0697021484375 3331.0
94.06607818603516 484.0
95.08828735351562 2016.0
96.04449462890625 9864.0
98.06156158447266 791.0
103.0555648803711 1106.0
105.06977081298828 24383.0
106.06611633300781 372.0
107.08458709716797 2403.0
108.0802001953125 5385.0
109.1024169921875 32989.0
110.02195739746094 2385.0
114.05321502685547 3412.0
115.05655670166016 278.0
117.07035064697266 697.0
119.08629608154297 1704.0
120.0776596069336 366.0
121.0638656616211 5168.0
122.09906768798828 1390.0
123.07794952392578 368.0
124.04198455810547 435.0
128.06275939941406 359.0
129.0699920654297 1595.0
130.06358337402344 321.0
131.08346557617188 1045.0
132.08474731445312 1315.0
133.06556701660156 42086.0
134.0971221923828 270.0
135.0821075439453 734.0
136.0035858154297 3996.0
136.1099853515625 292.0
137.09573364257812 8324.0
138.05372619628906 225.0
141.0676727294922 206.0
143.0832977294922 624.0
144.08384704589844 1237.0
145.06590270996094 783.0
146.09707641601562 1656.0
147.0808563232422 3622.0
148.0781707763672 619.0
149.07029724121094 442.0
150.09324645996094 17157.0
151.07656860351562 1776.0
152.03021240234375 1466.0
154.0109405517578 1317.0
154.12416076660156 3706.0
155.08737182617188 206.0
156.07635498046875 327.0
157.10015869140625 517.0
158.0955352783203 2952.0
159.0834503173828 859.0
160.0797576904297 738.0
162.08885192871094 404.0
163.04971313476562 218.0
164.03497314453125 216.0
165.0664825439453 299.0
166.0596160888672 1530.0
167.07569885253906 225.0
168.0857696533203 431.0
169.09158325195312 261.0
170.04733276367188 891.0
171.08102416992188 153.0
172.0791778564453 949.0
173.0599365234375 299.0
174.09161376953125 1207.0
175.04837036132812 494.0
176.03567504882812 541.0
177.07057189941406 1206.0
178.01300048828125 1150.0
179.07997131347656 564.0
180.03147888183594 278.0
181.06483459472656 332.0
182.09165954589844 198.0
183.1042938232422 271.0
184.1121368408203 458.0
185.097900390625 1018.0
186.09397888183594 5216.0
187.0850372314453 372.0
188.10374450683594 705.0
190.0856170654297 341.0
191.0465087890625 864.0
195.07887268066406 172.0
196.0738983154297 722.0
197.1147918701172 206.0
198.0893096923828 691.0
200.10708618164062 738.0
201.06707763671875 269.0
202.12710571289062 404.0
203.0499267578125 886.0
204.10313415527344 226.0
205.06260681152344 19160.0
208.1184539794922 182.0
210.0909423828125 382.0
212.0992889404297 738.0
213.09579467773438 919.0
214.0843505859375 4385.0
215.0854949951172 511.0
216.10546875 349.0
217.05963134765625 545.0
218.0842742919922 242.0
221.09547424316406 342.0
223.08226013183594 259.0
224.06849670410156 1038.0
225.05477905273438 222.0
226.1635284423828 526.0
228.10084533691406 1931.0
229.0598602294922 252.0
230.08473205566406 405.0
231.04150390625 23931.0
232.09860229492188 428.0
233.0938262939453 183.0
237.1435546875 200.0
239.08168029785156 433.0
240.0678253173828 335.0
240.17437744140625 369.0
241.09957885742188 3732.0
242.0876922607422 14501.0
243.08001708984375 715.0
244.1730499267578 882.0
245.0971221923828 711.0
246.11099243164062 207.0
247.0740203857422 3167.0
249.0500030517578 2826.0
249.1674041748047 1221.0
251.1494903564453 193.0
253.10818481445312 179.0
258.1836242675781 185.0
259.1067199707031 2030.0
260.0948181152344 4234.0
260.1966552734375 171.0
265.0886535644531 888.0
267.12152099609375 378.0
268.1730041503906 1858.0
269.1344909667969 382.0
271.07647705078125 1312.0
273.0509338378906 540.0
275.0605163574219 406.0
278.1085510253906 938.0
279.1158142089844 252.0
281.1333923339844 581.0
283.1535339355469 816.0
284.13201904296875 212.0
285.1287841796875 312.0
286.181884765625 406.0
289.0903015136719 361.0
291.1148376464844 582.0
293.1416320800781 818.0
294.1107482910156 248.0
295.10797119140625 1298.0
299.1404113769531 241.0
308.1366882324219 1124.0
309.12286376953125 3008.0
310.15753173828125 5661.0
311.1419677734375 11108.0
313.1229553222656 295.0
319.1161804199219 1085.0
325.1231994628906 4406.0
326.1614990234375 562.0
327.1329345703125 567.0
328.171875 1979.0
329.1462707519531 435.0
336.13360595703125 4827.0
337.122314453125 50250.0
339.1377258300781 558.0
343.12933349609375 489.0
349.1867370605469 187.0
351.2115173339844 517.0
354.1500549316406 5144.0
355.1331787109375 35344.0
359.1750183105469 188.0
372.1575012207031 3215.0
373.140869140625 2474.0
377.1909484863281 881.0
378.161865234375 374.0
395.20404052734375 5222.0
402.16717529296875 342.0
413.2092590332031 542.0
446.25396728515625 673.0
462.2431335449219 274.0
464.26080322265625 1117.0
508.2511291503906 38617.0
526.2578735351562 4166.0

Name: Virginiamycin M1
Precursor_mz: 548.2381361
Cas: 21411-53-0
Adduct: [M+Na]+
Mz: 548.2367212
Comment: Major
Smiles: CC1=C\[C@@H](O)CC(=O)Cc2nc(co2)C(=O)N2CCC=C2C(=O)O[C@H](C(C)C)[C@H](C)/C=C/C(=O)NC/C=C\1
Formula: C28H35N3O7
Mix: Alkaloids-pos-mix42
Rt: [3.864]
Rt_apex: 3.85084261
Rt_start: 3.6101
Rt_end: 4.238933333
Ms1_intensity: 677967
N_scnas: 117
Ms1_scan_range: [859, 909, 977]
Reci_snr: 0.000103947
Ms2_scan_idx: 1714
Pmz_offset: 0.002763386
Entropy: 0.9905006289482117
Num Peaks: 17
192.02342224121094 191.0
227.04656982421875 92.0
243.0756378173828 3654.0
244.05026245117188 366.0
245.0597686767578 1032.0
271.0348815917969 990.0
284.1675109863281 1994.0
286.1889953613281 185.0
287.0680847167969 52920.0
350.18658447265625 154.0
397.21807861328125 492.0
486.25 245.0
504.2536926269531 417.0
506.2441101074219 679.0
530.22509765625 1009.0
548.24560546875 240630.0
549.7647094726562 92.0

Name: Virginiamycin M1
Precursor_mz: 543.2828568
Cas: 21411-53-0
Adduct: [M+NH4]+
Mz: 543.281326
Comment: Major
Smiles: CC1=C\[C@@H](O)CC(=O)Cc2nc(co2)C(=O)N2CCC=C2C(=O)O[C@H](C(C)C)[C@H](C)/C=C/C(=O)NC/C=C\1
Formula: C28H35N3O7
Mix: Alkaloids-pos-mix42
Rt: [3.864]
Rt_apex: 3.866902549
Rt_start: 3.753216667
Rt_end: 4.059316667
Ms1_intensity: 203031
N_scnas: 52
Ms1_scan_range: [891, 911, 944]
Reci_snr: 0.000266418
Ms2_scan_idx: 1710
Pmz_offset: 0.000827252
Entropy: 0.8809083700180054
Num Peaks: 140
55.054359436035156 381.0
67.05348205566406 1839.0
68.0477066040039 262.0
69.07024383544922 264.0
70.06633758544922 241.0
77.03775024414062 392.0
79.05481719970703 1020.0
81.06889343261719 1664.0
91.04999542236328 844.0
93.06834411621094 1244.0
95.08418273925781 1353.0
96.04174041748047 4615.0
98.05599975585938 620.0
103.04986572265625 262.0
105.06832885742188 11506.0
107.08313751220703 889.0
108.07874298095703 2195.0
109.1009521484375 15009.0
110.0204849243164 882.0
112.07308197021484 246.0
114.05471801757812 2722.0
115.050537109375 205.0
117.07035064697266 264.0
119.08629608154297 752.0
120.0776596069336 244.0
121.0638656616211 2503.0
122.09286499023438 812.0
124.03573608398438 209.0
129.0699920654297 398.0
130.065185546875 177.0
131.08506774902344 302.0
132.0799102783203 492.0
133.06393432617188 22007.0
135.07884216308594 508.0
137.09410095214844 5397.0
144.0771026611328 616.0
145.064208984375 243.0
146.0919952392578 710.0
147.07745361328125 1607.0
148.07305908203125 385.0
150.08981323242188 9478.0
151.07138061523438 942.0
152.0388641357422 639.0
154.01268005371094 748.0
154.12242126464844 2252.0
158.09201049804688 938.0
159.07814025878906 255.0
160.07797241210938 395.0
162.09063720703125 229.0
166.0596160888672 873.0
170.04367065429688 404.0
172.07733154296875 481.0
174.08975219726562 698.0
176.03753662109375 251.0
177.06497192382812 441.0
178.01486206054688 425.0
179.08184814453125 444.0
181.06105041503906 184.0
184.1121368408203 345.0
185.097900390625 609.0
186.08822631835938 2657.0
188.10760498046875 381.0
191.04067993164062 445.0
196.02084350585938 556.0
198.09523010253906 341.0
200.10311889648438 881.0
202.1231231689453 216.0
203.03993225097656 250.0
205.0605926513672 9782.0
212.10951232910156 783.0
213.1019287109375 665.0
214.08641052246094 2823.0
215.0813751220703 172.0
216.10340881347656 322.0
217.0637664794922 405.0
221.09129333496094 479.0
224.06639099121094 625.0
226.1593017578125 330.0
228.10508728027344 1150.0
230.08261108398438 276.0
231.0393829345703 11303.0
232.10287475585938 433.0
240.17002868652344 195.0
241.09739685058594 2336.0
242.08114624023438 8358.0
243.0756378173828 506.0
244.1708526611328 398.0
245.0905303955078 512.0
247.0718231201172 2407.0
249.05221557617188 2205.0
249.1563262939453 1646.0
259.1089782714844 890.0
260.0970764160156 3044.0
265.0840759277344 575.0
267.1513366699219 174.0
268.1615295410156 1131.0
269.1298828125 153.0
271.0695495605469 786.0
273.0555725097656 329.0
275.0628356933594 345.0
278.1015319824219 682.0
281.1286926269531 203.0
283.1488342285156 721.0
286.17950439453125 373.0
289.0879211425781 309.0
291.1148376464844 340.0
293.129638671875 555.0
294.10113525390625 215.0
295.1152038574219 889.0
308.1416320800781 915.0
309.12286376953125 1795.0
310.1600036621094 3619.0
311.1419677734375 7910.0
313.1204833984375 258.0
319.1086730957031 527.0
321.1248779296875 194.0
325.1181640625 3037.0
326.1513671875 617.0
327.13037109375 405.0
328.16424560546875 1076.0
329.14117431640625 355.0
336.13104248046875 4059.0
337.1197509765625 32940.0
339.1402893066406 459.0
343.1241149902344 494.0
351.21942138671875 262.0
354.1474304199219 3664.0
355.1331787109375 33283.0
367.20355224609375 180.0
372.16290283203125 2185.0
373.140869140625 1886.0
377.1800537109375 617.0
395.2012634277344 3660.0
402.16156005859375 407.0
413.2064208984375 468.0
446.2510070800781 445.0
462.2431335449219 178.0
464.2577819824219 764.0
480.2466735839844 214.0
548.2357177734375 297.0

Name: 2-heptyl-3-hydroxy-4(1H)-Quinolone
Precursor_mz: 260.1650765
Cas: 108985-27-9
Adduct: [M+H]+
Mz: 260.1645054
Comment: Major
Smiles: CCCCCCCc1[nH]c2ccccc2c(=O)c1O
Formula: C16H21NO2
Mix: Alkaloids-pos-mix42
Rt: [4.273]
Rt_apex: 4.267175796
Rt_start: 3.946616667
Rt_end: 6.617966667
Ms1_intensity: 2247410
N_scnas: 635
Ms1_scan_range: [923, 981, 1559]
Reci_snr: 0.004257119
Ms2_scan_idx: 1936
Pmz_offset: 0.002353526
Entropy: 0.9797496199607849
Num Peaks: 56
41.03786087036133 590.0
42.032718658447266 567.0
43.054222106933594 663.0
51.023170471191406 259.0
57.06855392456055 675.0
77.03773498535156 1543.0
78.04735565185547 968.0
89.03787994384766 372.0
91.05132293701172 2129.0
92.06110382080078 669.0
93.05750274658203 3541.0
101.03826904296875 180.0
102.04796600341797 553.0
103.05413055419922 1046.0
104.04948425292969 10737.0
105.03092193603516 1257.0
106.0704345703125 308.0
115.0520248413086 1339.0
116.04764556884766 726.0
117.05818939208984 1541.0
118.06395721435547 6801.0
119.07402801513672 3040.0
120.0822525024414 188.0
128.05003356933594 1520.0
129.06040954589844 1583.0
130.06356811523438 13453.0
132.0411834716797 814.0
133.0509796142578 9276.0
134.05810546875 460.0
140.04776000976562 192.0
142.06112670898438 675.0
143.07321166992188 389.0
144.07876586914062 577.0
146.05975341796875 157135.0
147.0672149658203 111310.0
148.07644653320312 154.0
158.06199645996094 1667.0
159.0657196044922 344.0
160.07972717285156 540.0
161.04531860351562 1836.0
162.0513153076172 2487.0
170.06011962890625 342.0
172.07363891601562 592.0
174.05455017089844 4040.0
175.06320190429688 437336.0
184.075927734375 275.0
186.0499267578125 234.0
188.0709991455078 69107.0
189.08082580566406 4015.0
200.1090545654297 1645.0
202.08917236328125 2221.0
204.09710693359375 242.0
214.1212921142578 183.0
216.10337829589844 154.0
259.36651611328125 1213.0
260.1672058105469 413294.0

Name: 2-heptyl-3-hydroxy-4(1H)-Quinolone
Precursor_mz: 282.1429058
Cas: 108985-27-9
Adduct: [M+Na]+
Mz: 282.1464496
Comment: Major
Smiles: CCCCCCCc1[nH]c2ccccc2c(=O)c1O
Formula: C16H21NO2
Mix: Alkaloids-pos-mix42
Rt: [4.273]
Rt_apex: 4.268686971
Rt_start: 4.231933333
Rt_end: 4.593883333
Ms1_intensity: 8119
N_scnas: 70
Ms1_scan_range: [976, 981, 1047]
Reci_snr: 0.033118144
Ms2_scan_idx: 1986
Pmz_offset: 0.000327701
Entropy: 1.0
Num Peaks: 2
134.09878540039062 31.0
282.2192687988281 31.0

Name: Harmalol hydrochloride
Precursor_mz: 201.1014032
Cas: 7/5/28
Adduct: [M+H]+
Mz: 201.1022395
Comment: Major
Smiles: CC1=NCCc2c1[nH]c1cc(O)ccc21
Formula: C12H12N2O
Mix: Alkaloids-pos-mix42
Rt: [1.798]
Rt_apex: 1.801441593
Rt_start: 1.673266667
Rt_end: 1.8651
Ms1_intensity: 1903126
N_scnas: 37
Ms1_scan_range: [502, 529, 540]
Reci_snr: 0.000925293
Ms2_scan_idx: 713
Pmz_offset: 2.97e-05
Entropy: 0.9990178346633911
Num Peaks: 74
41.037864685058594 361.0
42.034542083740234 19055.0
51.02217483520508 226.0
55.01583480834961 154.0
56.048004150390625 1499.0
65.03829956054688 1236.0
67.04313659667969 691.0
68.05001831054688 13527.0
77.03897857666016 2189.0
78.04364013671875 199.0
79.05606079101562 668.0
80.05115509033203 154.0
89.03788757324219 2938.0
90.04579162597656 1233.0
91.05669403076172 2634.0
93.05615234375 92.0
94.03885650634766 551.0
101.03546142578125 256.0
102.04513549804688 632.0
103.05555725097656 4366.0
104.04805755615234 611.0
105.07120513916016 3662.0
106.04009246826172 370.0
107.04972839355469 698.0
113.03934478759766 217.0
114.04871368408203 455.0
115.05354309082031 16812.0
116.0506820678711 1589.0
117.05819702148438 13720.0
118.06396484375 615.0
119.05107116699219 438.0
120.04536437988281 232.0
126.03961944580078 92.0
127.05628967285156 1905.0
128.0595703125 2164.0
129.0715789794922 2402.0
130.0667724609375 6773.0
131.05133056640625 4954.0
132.08151245117188 8952.0
133.0509796142578 3021.0
134.05812072753906 396.0
139.0514373779297 1517.0
140.05274963378906 1659.0
141.0576629638672 997.0
142.066162109375 2956.0
143.0749053955078 2678.0
144.0450897216797 1813.0
145.05406188964844 2561.0
146.06484985351562 1735.0
154.0631866455078 2930.0
155.0751190185547 894.0
156.07986450195312 2104.0
157.07728576660156 2176.0
158.06024169921875 6162.0
159.06927490234375 15029.0
160.07797241210938 122735.0
166.0668487548828 2481.0
167.07568359375 2954.0
168.06756591796875 154.0
169.0514373779297 894.0
170.0546417236328 431.0
171.05531311035156 562.0
172.08285522460938 989.0
173.10792541503906 296.0
182.05946350097656 836.0
183.06820678710938 7397.0
184.0797576904297 14941.0
185.0711669921875 19605.0
186.0824737548828 12375.0
199.08602905273438 1962.0
200.09913635253906 390.0
200.4923858642578 467.0
201.10289001464844 134175.0
202.015380859375 92.0

Name: Irinotecan hydrochloride trihydrate
Precursor_mz: 587.2873435
Cas: 136572-09-3
Adduct: [M+H]+
Mz: 587.2864114
Comment: Major
Smiles: CCc1c2c(nc3ccc(OC(=O)N4CCC(N5CCCCC5)CC4)cc13)-c1cc3c(c(=O)n1C2)COC(=O)[C@]3(O)CC
Formula: C33H38N4O6
Mix: Alkaloids-pos-mix42
Rt: [2.795]
Rt_apex: 2.794539418
Rt_start: 2.430916667
Rt_end: 2.857533333
Ms1_intensity: 3360229
N_scnas: 73
Ms1_scan_range: [656, 720, 730]
Reci_snr: 0.001126233
Ms2_scan_idx: 1124
Pmz_offset: 0.000901822
Entropy: 1.0000001192092896
Num Peaks: 21
67.05358123779297 79.0
84.08100128173828 229.0
86.09651184082031 75.0
98.09367370605469 110.0
110.06039428710938 227.0
124.10939025878906 896.0
167.11404418945312 556.0
195.14974975585938 436.0
303.1445007324219 70.0
316.1204528808594 104.0
329.1340637207031 41.0
331.1458740234375 220.0
346.08404541015625 51.0
361.1543884277344 58.0
375.1311340332031 79.0
405.15081787109375 97.0
414.2174987792969 176.0
458.2066345214844 213.0
502.2018737792969 440.0
543.2959594726562 281.0
587.2838745117188 2968.0

Name: Chelerythrine chloride
Precursor_mz: 348.123916
Cas: 3895-92-9
Adduct: [M]+
Mz: 348.1230345
Comment: Major
Smiles: COc1ccc2c(c[n+](C)c3c4cc5c(cc4ccc23)OCO5)c1OC
Formula: C21H18NO4+
Mix: Alkaloids-pos-mix42
Rt: [3.12]
Rt_apex: 3.115842152
Rt_start: 3.074016667
Rt_end: 3.860133333
Ms1_intensity: 1296647
N_scnas: 143
Ms1_scan_range: [766, 773, 910]
Reci_snr: 0.001325136
Ms2_scan_idx: 1419
Pmz_offset: 0.002396406
Entropy: 0.9957402348518372
Num Peaks: 46
178.0672149658203 93.0
191.07745361328125 93.0
204.0789794921875 656.0
216.08267211914062 319.0
217.0905303955078 217.0
218.0945281982422 367.0
228.08164978027344 281.0
230.0995330810547 317.0
231.1096649169922 92.0
232.0728302001953 2371.0
233.08299255371094 414.0
234.091064453125 473.0
244.08302307128906 545.0
245.0926055908203 92.0
246.09326171875 2016.0
247.09815979003906 397.0
248.10511779785156 199.0
256.074951171875 175.0
257.0865173339844 211.0
258.08880615234375 311.0
260.0697937011719 1796.0
261.0778503417969 322.0
262.0856018066406 390.0
272.0730895996094 565.0
273.0786437988281 92.0
274.093017578125 1576.0
275.09295654296875 1461.0
276.0993957519531 458.0
284.0751037597656 93.0
286.08203125 752.0
287.08935546875 1125.0
288.1079406738281 614.0
289.073486328125 914.0
290.0836181640625 24781.0
301.075439453125 221.0
302.0843811035156 1013.0
303.0901184082031 1297.0
304.0975341796875 27084.0
314.0945129394531 747.0
315.0876770019531 2280.0
316.0948486328125 2933.0
317.06866455078125 927.0
330.07861328125 6473.0
332.09332275390625 42633.0
333.1042785644531 18278.0
348.12530517578125 53161.0

Name: Chelerythrine chloride
Precursor_mz: 348.1217569
Cas: 3895-92-9
Adduct: [M]+
Mz: 348.1230345
Comment: isomer
Smiles: COc1ccc2c(c[n+](C)c3c4cc5c(cc4ccc23)OCO5)c1OC
Formula: C21H18NO4+
Mix: Alkaloids-pos-mix42
Rt: [3.12]
Rt_apex: 3.887254027
Rt_start: 3.860133333
Rt_end: 4.2661
Ms1_intensity: 16040
N_scnas: 70
Ms1_scan_range: [910, 914, 981]
Reci_snr: 0.135827386
Ms2_scan_idx: 1749
Pmz_offset: 0.000237293
Entropy: 0.9999999403953552
Num Peaks: 12
232.08132934570312 123.0
274.0882873535156 154.0
290.08355712890625 859.0
304.09747314453125 1002.0
315.0851135253906 92.0
316.0798034667969 198.0
317.0635986328125 92.0
318.0764465332031 653.0
330.07598876953125 178.0
332.09326171875 1723.0
333.10418701171875 563.0
348.1199951171875 1550.0

Name: Topotecan
Precursor_mz: 422.1713379
Cas: 123948-87-8
Adduct: [M+H]+
Mz: 422.1710473
Comment: Major
Smiles: CC[C@@]1(O)C(=O)OCc2c1cc1n(c2=O)Cc2cc3c(CN(C)C)c(O)ccc3nc2-1
Formula: C23H23N3O5
Mix: Alkaloids-pos-mix42
Rt: [2.107]
Rt_apex: 2.102913852
Rt_start: 1.947083333
Rt_end: 2.40505
Ms1_intensity: 1340482
N_scnas: 94
Ms1_scan_range: [553, 586, 648]
Reci_snr: 0.000512868
Ms2_scan_idx: 813
Pmz_offset: 0.001323107
Entropy: 1.0
Num Peaks: 7
46.06459426879883 100.0
248.0875244140625 46.0
276.0808410644531 46.0
305.13616943359375 62.0
320.0845642089844 46.0
348.0835266113281 77.0
377.12548828125 217.0

Name: Harmol
Precursor_mz: 199.0863978
Cas: 487-03-6
Adduct: [M+H]+
Mz: 199.0865894
Comment: Major
Smiles: Cc1nccc2c1[nH]c1cc(O)ccc12
Formula: C12H10N2O
Mix: Alkaloids-pos-mix42
Rt: [1.858]
Rt_apex: 1.855794291
Rt_start: 1.8166
Rt_end: 2.11375
Ms1_intensity: 2570452
N_scnas: 55
Ms1_scan_range: [532, 539, 588]
Reci_snr: 0.001433512
Ms2_scan_idx: 735
Pmz_offset: 0.001864355
Entropy: 0.9961131811141968
Num Peaks: 77
50.014705657958984 367.0
51.022117614746094 4576.0
52.01933288574219 199.0
63.023712158203125 636.0
65.03596496582031 456.0
75.02112579345703 428.0
76.03094482421875 314.0
77.03889465332031 60479.0
78.0447998046875 575.0
79.03601837158203 239.0
80.04855346679688 226.0
87.01805114746094 411.0
88.02765655517578 170.0
89.04043579101562 1737.0
90.04302978515625 466.0
91.05123901367188 2115.0
92.04755401611328 418.0
93.05335235595703 239.0
95.04986572265625 612.0
101.03675842285156 3266.0
102.04502868652344 14544.0
103.05402374267578 148270.0
104.04794311523438 3402.0
105.04376220703125 1316.0
106.04142761230469 233.0
113.03623962402344 5908.0
114.04559326171875 1212.0
115.05342102050781 8597.0
116.0505599975586 2203.0
117.06718444824219 2522.0
118.06231689453125 1007.0
125.03788757324219 259.0
126.0442123413086 584.0
127.05299377441406 8511.0
128.04673767089844 11707.0
129.05709838867188 7283.0
130.06503295898438 27130.0
131.0479736328125 227345.0
132.06686401367188 2647.0
133.05245971679688 876.0
138.02719116210938 255.0
139.03805541992188 450.0
140.04762268066406 9198.0
141.05584716796875 4655.0
142.0626678466797 5005.0
143.0730743408203 4751.0
144.0769500732422 7011.0
145.06573486328125 1768.0
146.05960083007812 643.0
152.04734802246094 649.0
153.04917907714844 1019.0
154.06301879882812 11082.0
155.06097412109375 25940.0
156.06741333007812 22130.0
157.052490234375 8421.0
158.06007385253906 16604.0
159.0637969970703 372.0
165.04286193847656 345.0
166.05401611328125 823.0
168.0673828125 817.0
169.07496643066406 31026.0
170.0819091796875 53105.0
171.0900115966797 228880.0
172.07345581054688 3042.0
179.0628662109375 3168.0
180.06329345703125 1371.0
181.07595825195312 14703.0
182.0819854736328 3441.0
183.05471801757812 5537.0
184.0624237060547 64291.0
197.0692596435547 8951.0
198.07920837402344 31321.0
198.48233032226562 1571.0
199.08778381347656 726531.0
199.817138671875 479.0
199.96990966796875 505.0
200.14657592773438 369.0

Name: Aloperine
Precursor_mz: 233.2010757
Cas: 56293-29-9
Adduct: [M+H]+
Mz: 233.2012252
Comment: Major
Smiles: C1=C2CCCN[C@H]2[C@H]2C[C@H]1[C@H]1CCCCN1C2
Formula: C15H24N2
Mix: Alkaloids-pos-mix43
Rt: [3.591]
Rt_apex: 9.510268243
Rt_start: 9.445966667
Rt_end: 9.628283333
Ms1_intensity: 2115
N_scnas: 22
Ms1_scan_range: [2172, 2180, 2195]
Reci_snr: 0.006580674
Ms2_scan_idx: 3771
Pmz_offset: 0.001332412
Entropy: 1.0
Num Peaks: 3
42.03445053100586 93.0
77.03882598876953 154.0
233.20486450195312 445.0

Name: Jatrorrhizine
Precursor_mz: 338.1400174
Cas: 3621-38-3
Adduct: [M]+
Mz: 338.1386845
Comment: Major
Smiles: COc1cc2c(cc1O)CC[n+]1cc3c(OC)c(OC)ccc3cc1-2
Formula: C20H20NO4+
Mix: Alkaloids-pos-mix43
Rt: [2.703]
Rt_apex: 2.700900496
Rt_start: 2.628766667
Rt_end: 3.5637
Ms1_intensity: 5339012
N_scnas: 150
Ms1_scan_range: [723, 734, 874]
Reci_snr: 0.00103811
Ms2_scan_idx: 1234
Pmz_offset: 0.002682128
Entropy: 0.9980217814445496
Num Peaks: 69
165.0703125 154.0
178.065673828125 295.0
180.08258056640625 272.0
190.06460571289062 400.0
191.0739288330078 775.0
192.0859375 258.0
204.0753631591797 390.0
205.09706115722656 234.0
206.05886840820312 154.0
207.06935119628906 235.0
208.07421875 1119.0
209.0876007080078 341.0
217.0826873779297 187.0
218.09288024902344 154.0
219.0701141357422 423.0
220.0765838623047 1364.0
221.08535766601562 965.0
222.0943603515625 6814.0
223.10354614257812 569.0
224.0709228515625 196.0
227.09341430664062 450.0
232.07969665527344 320.0
233.0834503173828 1668.0
234.0936737060547 3712.0
235.0630340576172 446.0
236.07106018066406 11990.0
237.07691955566406 16106.0
246.095947265625 258.0
248.0746612548828 796.0
249.07473754882812 910.0
250.08792114257812 31553.0
251.09649658203125 24794.0
252.1071014404297 714.0
260.07708740234375 229.0
261.0829162597656 591.0
262.08612060546875 25112.0
263.09356689453125 9042.0
264.06414794921875 2208.0
265.07763671875 154848.0
266.12054443359375 524.0
267.13336181640625 183.0
276.06964111328125 2817.0
277.10821533203125 30129.0
278.0832214355469 22180.0
279.0927734375 361121.0
280.0994567871094 315331.0
290.08660888671875 711.0
291.0913391113281 54849.0
292.05706787109375 1074.0
293.10845947265625 13558.0
294.1159973144531 555987.0
295.130126953125 1435.0
304.06146240234375 390.0
305.07049560546875 17413.0
306.1155700683594 143521.0
307.086181640625 235734.0
308.0953063964844 292867.0
309.10113525390625 280.0
320.0951232910156 31197.0
321.1178283691406 1641.0
322.1119384765625 786243.0
323.11767578125 513257.0
337.1073913574219 2144.0
338.14398193359375 770529.0
339.0968933105469 965.0
339.2933044433594 613.0
339.5285949707031 422.0
339.62945556640625 187.0
339.8130798339844 168.0

Name: Jatrorrhizine
Precursor_mz: 338.1365167
Cas: 3621-38-3
Adduct: [M]+
Mz: 338.1386845
Comment: isomer
Smiles: COc1cc2c(cc1O)CC[n+]1cc3c(OC)c(OC)ccc3cc1-2
Formula: C20H20NO4+
Mix: Alkaloids-pos-mix43
Rt: [2.703]
Rt_apex: 9.489462224
Rt_start: 9.3347
Rt_end: 9.664616667
Ms1_intensity: 1990
N_scnas: 50
Ms1_scan_range: [2149, 2177, 2200]
Reci_snr: 0.054231607
Ms2_scan_idx: 3767
Pmz_offset: 0.000818662
Entropy: 1.0
Num Peaks: 12
265.0768127441406 93.0
278.084716796875 62.0
279.0895690917969 154.0
280.0939025878906 123.0
291.0904541015625 93.0
294.11029052734375 267.0
306.1219787597656 92.0
307.080322265625 123.0
308.09185791015625 189.0
322.10589599609375 450.0
323.1191711425781 193.0
338.13775634765625 189.0

Name: Sipeimine
Precursor_mz: 430.3318833
Cas: 61825-98-7
Adduct: [M+H]+
Mz: 430.3315707
Comment: Major
Smiles: C[C@H]1CC[C@@H]2N(C1)C[C@H]1[C@@H]3C[C@H]4[C@@H](CC(=O)[C@H]5C[C@@H](O)CC[C@@]54C)[C@@H]3CC[C@H]1[C@]2(C)O
Formula: C27H43NO3
Mix: Alkaloids-pos-mix43
Rt: [2.509]
Rt_apex: 2.505900419
Rt_start: 2.454116667
Rt_end: 2.601433333
Ms1_intensity: 9983231
N_scnas: 25
Ms1_scan_range: [693, 704, 719]
Reci_snr: 5.69e-05
Ms2_scan_idx: 1095
Pmz_offset: 0.001042911
Entropy: 0.6894713640213013
Num Peaks: 59
41.03880310058594 119.0
42.03276443481445 134.0
44.047977447509766 165.0
55.05649948120117 151.0
67.0547103881836 252.0
68.04779052734375 100.0
69.07382202148438 299.0
70.06407165527344 126.0
77.03660583496094 212.0
79.0511703491211 480.0
80.05125427246094 304.0
81.07151794433594 202.0
82.06519317626953 374.0
84.08226776123047 245.0
91.05413055419922 475.0
93.06981658935547 532.0
94.0634765625 568.0
95.08293914794922 522.0
96.08037567138672 4675.0
98.09504699707031 2085.0
105.06990814208984 441.0
107.08473205566406 197.0
108.07743072509766 179.0
109.08643341064453 542.0
110.09276580810547 416.0
112.11186218261719 1766.0
117.0689926147461 154.0
119.08646392822266 459.0
121.10417938232422 116.0
122.09613037109375 141.0
123.10614776611328 258.0
124.1109390258789 296.0
125.11824035644531 120.0
126.12962341308594 192.0
131.08685302734375 84.0
133.1013641357422 311.0
136.10853576660156 152.0
138.1281280517578 100686.0
145.0982208251953 142.0
147.11680603027344 454.0
148.1142578125 528.0
150.12612915039062 90.0
161.12571716308594 129.0
162.13197326660156 89.0
175.1451873779297 246.0
185.13255310058594 134.0
202.163330078125 108.0
216.1759490966797 120.0
257.2198181152344 93.0
370.2789306640625 156.0
382.2835388183594 139.0
396.2934875488281 896.0
410.31103515625 389.0
412.3289489746094 877322.0
429.0166320800781 932.0
430.3373107910156 495882.0
431.34808349609375 172.0
431.6454162597656 166.0
431.8932800292969 117.0

Name: Dehydroevodiamine
Precursor_mz: 302.1297242
Cas: 67909-49-3
Adduct: [M]+
Mz: 302.1287886
Comment: Major
Smiles: C[n+]1c2n(c(=O)c3ccccc31)CCc1c-2[nH]c2ccccc12
Formula: C19H16N3O+
Mix: Alkaloids-pos-mix43
Rt: [2.737]
Rt_apex: 2.732685192
Rt_start: 2.6881
Rt_end: 3.5917
Ms1_intensity: 3505019
N_scnas: 145
Ms1_scan_range: [732, 739, 878]
Reci_snr: 0.000264501
Ms2_scan_idx: 1258
Pmz_offset: 0.003048104
Entropy: 0.8899729251861572
Num Peaks: 118
65.0361099243164 153.0
77.04029846191406 772.0
79.05366516113281 370.0
89.03799438476562 675.0
90.03125762939453 260.0
91.05680847167969 1019.0
92.05046081542969 567.0
101.03700256347656 281.0
102.03250885009766 363.0
103.04999542236328 410.0
104.04962921142578 682.0
105.0353775024414 262.0
106.06480407714844 1337.0
113.03650665283203 263.0
114.03388214111328 126.0
115.05369567871094 6429.0
116.05083465576172 2467.0
117.05835723876953 789.0
118.0656509399414 606.0
119.03591918945312 621.0
120.04398345947266 1022.0
127.05171966552734 521.0
128.0518035888672 2586.0
129.06698608398438 4615.0
130.06214904785156 4635.0
131.05953979492188 1483.0
132.04299926757812 1568.0
134.05992126464844 3436.0
139.04005432128906 96.0
140.05128479003906 6269.0
141.057861328125 465.0
142.064697265625 4520.0
143.07174682617188 1084.0
144.0789794921875 773.0
145.04074096679688 470.0
146.06166076660156 618.0
147.05892944335938 626.0
153.049560546875 97.0
154.0634002685547 700.0
155.05787658691406 5168.0
156.080078125 5511.0
157.07574462890625 521.0
158.05870056152344 494.0
159.0553436279297 1141.0
160.0728759765625 182.0
161.07228088378906 567.0
166.0526123046875 194.0
167.06141662597656 29638.0
168.0659942626953 1259.0
169.0772247314453 3067.0
170.0640411376953 200.0
171.05189514160156 183.0
180.05433654785156 267.0
181.0726318359375 289.0
182.0824432373047 127.0
183.09317016601562 1068.0
184.07431030273438 133.0
185.07334899902344 1587.0
189.0695343017578 314.0
190.06460571289062 243.0
195.05760192871094 387.0
199.0823516845703 98.0
202.0595703125 140.0
203.07022094726562 134.0
204.0813751220703 795.0
205.0789794921875 226.0
206.08908081054688 122.0
209.0713653564453 350.0
214.06207275390625 163.0
215.0693359375 188.0
216.076904296875 1239.0
217.0847625732422 796.0
218.086669921875 557.0
219.09295654296875 162.0
228.07998657226562 108.0
229.07931518554688 879.0
230.0999755859375 467.0
231.09091186523438 5264.0
232.09893798828125 757.0
233.10702514648438 538.0
234.08937072753906 329.0
240.0703582763672 191.0
241.07815551757812 1474.0
242.0836944580078 2459.0
243.093505859375 2636.0
244.09226989746094 1170.0
245.0974884033203 613.0
246.08494567871094 358.0
247.1251220703125 245.0
255.09056091308594 654.0
256.0911865234375 2271.0
257.0982971191406 13219.0
258.10284423828125 63934.0
259.0912780761719 14904.0
260.09747314453125 754.0
261.0965270996094 1000.0
268.0906982421875 685.0
270.07965087890625 929.0
271.08612060546875 1266.0
272.0828857421875 43094.0
273.1047058105469 1643.0
275.1191101074219 894.0
276.1232604980469 481.0
284.1182556152344 1548.0
285.0936584472656 11440.0
286.10162353515625 1139192.0
287.1065673828125 365195.0
288.0203857421875 135.0
300.1149597167969 1180.0
301.2026672363281 4006.0
302.13134765625 1088009.0
303.0296630859375 1750.0
303.1445007324219 1809.0
303.4377746582031 639.0
303.5379943847656 196.0
303.8070068359375 108.0
304.0002746582031 84.0
304.1520080566406 87.0

Name: 7-Ethylcamptothecin
Precursor_mz: 399.1308471
Cas: 78287-27-1
Adduct: [M+Na]+
Mz: 399.1315278
Comment: Major
Smiles: CCc1c2c(nc3ccccc13)-c1cc3c(c(=O)n1C2)COC(=O)[C@]3(O)CC
Formula: C22H20N2O4
Mix: Alkaloids-pos-mix43
Rt: [3.643]
Rt_apex: 3.640244846
Rt_start: 3.605033333
Rt_end: 3.718366667
Ms1_intensity: 18483
N_scnas: 16
Ms1_scan_range: [880, 885, 897]
Reci_snr: 0.028320162
Ms2_scan_idx: 1782
Pmz_offset: 0.002489569
Entropy: 1.0
Num Peaks: 2
355.14324951171875 31.0
399.0964660644531 31.0

Name: Coptisine sulfate
Precursor_mz: 320.092738
Cas: 1198398-71-8
Adduct: [M]+
Mz: 320.0917344
Comment: Major
Smiles: c1c2c(cc3c1OCO3)-c1cc3ccc4c(c3c[n+]1CC2)OCO4
Formula: C19H14NO4+
Mix: Alkaloids-pos-mix43
Rt: [2.664]
Rt_apex: 2.660575531
Rt_start: 2.568783333
Rt_end: 3.5637
Ms1_intensity: 4458558
N_scnas: 159
Ms1_scan_range: [714, 728, 874]
Reci_snr: 0.000403877
Ms2_scan_idx: 1200
Pmz_offset: 0.002892507
Entropy: 0.9964511394500732
Num Peaks: 102
91.05011749267578 277.0
115.05370330810547 369.0
116.04631042480469 339.0
127.05647277832031 181.0
130.0637664794922 210.0
131.04830932617188 249.0
133.05441284179688 498.0
140.0479736328125 220.0
144.04530334472656 294.0
150.04360961914062 396.0
151.0560760498047 1430.0
152.0667724609375 421.0
153.06346130371094 187.0
154.06515502929688 454.0
158.06048583984375 644.0
159.04119873046875 327.0
163.05532836914062 685.0
164.05679321289062 437.0
165.06492614746094 806.0
166.06890869140625 186.0
167.0723114013672 351.0
174.0474395751953 190.0
175.0504913330078 497.0
176.06199645996094 5325.0
177.0670928955078 3095.0
178.07130432128906 3887.0
179.08399963378906 1514.0
180.0769500732422 329.0
181.06321716308594 517.0
183.06849670410156 1418.0
187.04884338378906 190.0
188.04052734375 242.0
189.067626953125 3002.0
190.06849670410156 2531.0
191.07589721679688 13560.0
192.08010864257812 1399.0
193.08502197265625 248.0
194.072998046875 401.0
195.0713348388672 1239.0
201.05743408203125 654.0
202.06358337402344 3261.0
203.07623291015625 15130.0
204.08140563964844 119824.0
205.08905029296875 13553.0
206.09715270996094 8893.0
207.08351135253906 1596.0
208.07626342773438 653.0
209.08152770996094 184.0
214.06004333496094 295.0
215.07347106933594 1473.0
216.07899475097656 4223.0
217.0868377685547 6208.0
218.07009887695312 1367.0
219.07220458984375 47972.0
220.07867431640625 26259.0
221.08746337890625 7599.0
222.0985565185547 319.0
223.07003784179688 447.0
230.0701904296875 172.0
231.06533813476562 2696.0
232.07972717285156 47002.0
233.0856170654297 88398.0
234.09368896484375 170765.0
235.09963989257812 6332.0
236.10989379882812 8038.0
244.0791473388672 1534.0
245.07333374023438 478.0
246.08717346191406 6105.0
247.06558227539062 63378.0
248.07467651367188 71023.0
249.0836181640625 142869.0
250.09683227539062 753.0
259.06195068359375 912.0
260.0703430175781 13192.0
261.0806579589844 28947.0
262.0906982421875 383766.0
263.0958557128906 26732.0
264.1029357910156 64968.0
266.08392333984375 208.0
272.07830810546875 238.0
273.058349609375 178.0
274.08892822265625 4942.0
275.06561279296875 15974.0
276.0696716308594 14731.0
277.0755310058594 286941.0
278.083251953125 732.0
288.0704345703125 6652.0
289.08123779296875 320.0
290.084228515625 187318.0
291.0937805175781 20248.0
292.1002502441406 529535.0
294.08233642578125 190.0
303.0589904785156 5252.0
304.0614929199219 292.0
305.0754089355469 14608.0
318.0796813964844 155408.0
319.11669921875 5028.0
320.09765625 875538.0
321.1455078125 2816.0
321.4398193359375 753.0
321.5429992675781 274.0
321.91552734375 221.0

Name: Coptisine sulfate
Precursor_mz: 320.0910648
Cas: 1198398-71-8
Adduct: [M]+
Mz: 320.0917344
Comment: isomer
Smiles: c1c2c(cc3c1OCO3)-c1cc3ccc4c(c3c[n+]1CC2)OCO4
Formula: C19H14NO4+
Mix: Alkaloids-pos-mix43
Rt: [2.664]
Rt_apex: 9.489812268
Rt_start: 9.2866
Rt_end: 9.725116667
Ms1_intensity: 6164
N_scnas: 71
Ms1_scan_range: [2137, 2178, 2209]
Reci_snr: 0.053457007
Ms2_scan_idx: 3766
Pmz_offset: 0.001219238
Entropy: 0.9613686203956604
Num Peaks: 9
234.10153198242188 154.0
249.07839965820312 312.0
261.0753173828125 92.0
262.0898742675781 667.0
264.1020812988281 154.0
277.0769958496094 451.0
290.08331298828125 182.0
292.1041259765625 716.0
320.089111328125 2046.0

Name: Pamufetinib
Precursor_mz: 519.1512306
Cas: 1190836-34-0
Adduct: [M+H]+
Mz: 519.149681
Comment: Major
Smiles: CNC(=O)c1cc2c(Oc3ccc(NC(=S)NC(=O)Cc4ccccc4)cc3F)ccnc2cc1OC
Formula: C27H23FN4O4S
Mix: Alkaloids-pos-mix43
Rt: [3.728]
Rt_apex: 3.725638858
Rt_start: 3.6772
Rt_end: 4.385283333
Ms1_intensity: 623531
N_scnas: 136
Ms1_scan_range: [891, 898, 1028]
Reci_snr: 0.000165201
Ms2_scan_idx: 1862
Pmz_offset: 0.003106971
Entropy: 0.9498421549797058
Num Peaks: 32
129.05557250976562 182.0
159.06919860839844 213.0
184.05873107910156 320.0
216.0888671875 2238.0
237.06565856933594 219.0
238.06930541992188 154.0
255.0452423095703 232.0
264.0317077636719 268.0
283.0306396484375 413.0
284.0420227050781 707.0
291.01898193359375 362.0
293.0406188964844 267.0
295.0379333496094 595.0
297.0589599609375 517.0
310.0215148925781 154.0
311.0849304199219 792.0
312.0386047363281 6431.0
325.0446472167969 1728.0
327.06427001953125 881.0
336.0794372558594 427.0
339.029052734375 565.0
342.12908935546875 4065.0
352.0587463378906 1206.0
353.0415954589844 24391.0
355.05902099609375 241.0
367.1227722167969 1290.0
370.0649108886719 430.0
384.0848693847656 446250.0
385.0921325683594 213.0
401.11236572265625 375.0
488.10833740234375 1950.0
519.16064453125 4880.0

Name: Pamufetinib
Precursor_mz: 541.1319365
Cas: 1190836-34-0
Adduct: [M+Na]+
Mz: 541.1316253
Comment: Major
Smiles: CNC(=O)c1cc2c(Oc3ccc(NC(=S)NC(=O)Cc4ccccc4)cc3F)ccnc2cc1OC
Formula: C27H23FN4O4S
Mix: Alkaloids-pos-mix43
Rt: [3.728]
Rt_apex: 3.725112738
Rt_start: 3.6577
Rt_end: 4.07035
Ms1_intensity: 76580
N_scnas: 73
Ms1_scan_range: [888, 898, 962]
Reci_snr: 0.001516726
Ms2_scan_idx: 1867
Pmz_offset: 0.003758919
Entropy: 0.9335949420928955
Num Peaks: 9
363.0260009765625 31.0
364.1097106933594 1985.0
389.09881591796875 392.0
406.0661926269531 4851.0
407.0735778808594 62.0
423.09832763671875 62.0
424.06878662109375 31.0
507.1479187011719 92.0
541.1256713867188 1365.0

Name: Adenine hemisulfate
Precursor_mz: 136.0603706
Cas: 321-30-2
Adduct: [M+H]+
Mz: 136.0617716
Comment: Major
Smiles: Nc1ncnc2[nH]cnc12
Formula: C5H5N5
Mix: Alkaloids-pos-mix43
Rt: [0.328]
Rt_apex: 0.325542158
Rt_start: 0.292933333
Rt_end: 0.581466667
Ms1_intensity: 935407
N_scnas: 64
Ms1_scan_range: [96, 101, 161]
Reci_snr: 0.004290457
Ms2_scan_idx: 159
Pmz_offset: 8.61e-05
Entropy: 0.9942565560340881
Num Peaks: 16
40.018470764160156 2868.0
43.02839660644531 728.0
45.0482177734375 93.0
53.01393508911133 123.0
55.031394958496094 1768.0
65.01334381103516 7530.0
66.02088928222656 62.0
67.03043365478516 4571.0
68.02912139892578 62.0
82.03958892822266 468.0
92.02603149414062 15098.0
94.0401382446289 2875.0
119.03567504882812 33382.0
135.6551055908203 93.0
136.065673828125 7862.0
137.05126953125 123.0

Name: Aegeline
Precursor_mz: 298.1445045
Cas: 456-12-2
Adduct: [M+H]+
Mz: 298.1437699
Comment: Major
Smiles: COc1ccc(C(O)CNC(=O)/C=C/c2ccccc2)cc1
Formula: C18H19NO3
Mix: Alkaloids-pos-mix43
Rt: [3.591]
Rt_apex: 3.592259961
Rt_start: 3.546883333
Rt_end: 3.792516667
Ms1_intensity: 208415
N_scnas: 36
Ms1_scan_range: [871, 878, 908]
Reci_snr: 0.003948101
Ms2_scan_idx: 1741
Pmz_offset: 0.002144097
Entropy: 0.9604384899139404
Num Peaks: 34
51.02313995361328 486.0
77.0376968383789 14000.0
91.05396270751953 752.0
95.0499267578125 123.0
102.04792022705078 2132.0
103.05408477783203 290054.0
105.0452651977539 186.0
107.04387664794922 205.0
115.05650329589844 187.0
116.06575012207031 92.0
118.06391906738281 808.0
119.07245635986328 123.0
121.06689453125 1349.0
123.07789611816406 93.0
127.05465698242188 180.0
128.0611114501953 409.0
129.071533203125 701.0
130.06512451171875 93.0
131.04966735839844 313322.0
133.05255126953125 154.0
135.04127502441406 1664.0
143.03623962402344 93.0
144.053466796875 1548.0
150.09146118164062 1854.0
158.06019592285156 276.0
159.07630920410156 1162.0
176.07470703125 296.0
202.08116149902344 311.0
203.0838623046875 123.0
204.09304809570312 190.0
219.08425903320312 92.0
220.0949249267578 255.0
235.1121063232422 403.0
280.1318359375 465.0

Name: Aegeline
Precursor_mz: 320.1246231
Cas: 456-12-2
Adduct: [M+Na]+
Mz: 320.1257142
Comment: Major
Smiles: COc1ccc(C(O)CNC(=O)/C=C/c2ccccc2)cc1
Formula: C18H19NO3
Mix: Alkaloids-pos-mix43
Rt: [3.591]
Rt_apex: 3.586732871
Rt_start: 3.554033333
Rt_end: 3.6772
Ms1_intensity: 248261
N_scnas: 18
Ms1_scan_range: [872, 877, 891]
Reci_snr: 0.070708027
Ms2_scan_idx: 1747
Pmz_offset: 0.000446965
Entropy: 0.9682635068893433
Num Peaks: 17
204.07888793945312 316.0
219.06333923339844 92.0
232.06845092773438 202.0
233.08932495117188 154.0
234.09310913085938 203.0
247.06497192382812 154.0
248.06964111328125 195.0
249.08299255371094 249.0
262.0923156738281 517.0
263.0997314453125 92.0
264.1022644042969 335.0
275.05328369140625 92.0
277.07952880859375 422.0
290.0835266113281 277.0
291.0954284667969 123.0
292.0899353027344 983.0
320.09686279296875 2655.0

Name: Quinine hydrochloride dihydrate
Precursor_mz: 325.190744
Cas: 6119-47-7
Adduct: [M+H]+
Mz: 325.1910545
Comment: Major
Smiles: C=C[C@H]1C[N@@]2CC[C@H]1C[C@H]2[C@H](O)c1ccnc2ccc(OC)cc12
Formula: C20H24N2O2
Mix: Alkaloids-pos-mix44
Rt: [3.085]
Rt_apex: 2.078124303
Rt_start: 2.01895
Rt_end: 2.180916667
Ms1_intensity: 2840
N_scnas: 27
Ms1_scan_range: [499, 509, 527]
Reci_snr: 0.007175134
Ms2_scan_idx: 907
Pmz_offset: 0.000325768
Entropy: 1.0
Num Peaks: 2
160.07424926757812 46.0
325.1938171386719 77.0

Name: Piperlonguminine
Precursor_mz: 274.144433
Cas: 12/9/50
Adduct: [M+H]+
Mz: 274.1437699
Comment: Major
Smiles: CC(C)CNC(=O)/C=C/C=C/c1ccc2c(c1)OCO2
Formula: C16H19NO3
Mix: Alkaloids-pos-mix44
Rt: [4.177, 4.426]
Rt_apex: 4.180586744
Rt_start: 4.114266667
Rt_end: 4.215266667
Ms1_intensity: 4382351
N_scnas: 14
Ms1_scan_range: [861, 871, 876]
Reci_snr: 0.000142932
Ms2_scan_idx: 2066
Pmz_offset: 0.002713248
Entropy: 0.9911357760429382
Num Peaks: 68
41.039695739746094 11380.0
44.0125846862793 204.0
46.0294075012207 189.0
50.015804290771484 222.0
51.0222282409668 4463.0
55.01797866821289 537.0
57.070743560791016 21987.0
63.022743225097656 154.0
65.03838348388672 1631.0
70.03001403808594 424.0
72.0811996459961 380.0
77.03907775878906 39882.0
79.05492401123047 16842.0
89.03801727294922 8655.0
91.05281066894531 5748.0
93.03463745117188 3209.0
95.05011749267578 1319.0
96.04325866699219 1946.0
101.03702545166016 344.0
102.04388427734375 472.0
103.0542984008789 9927.0
105.03397369384766 13029.0
107.04554748535156 988.0
114.04740142822266 482.0
115.05523681640625 620060.0
116.06448364257812 861.0
117.07054138183594 26126.0
118.06721496582031 379.0
119.08802032470703 275.0
123.04546356201172 2180.0
126.0492935180664 268.0
127.0533447265625 8062.0
128.05821228027344 319.0
129.0734100341797 444.0
131.04673767089844 1422.0
132.05593872070312 238.0
135.04481506347656 668903.0
139.10133361816406 429.0
140.0480194091797 225.0
142.0647430419922 1365.0
143.0499725341797 193972.0
144.05714416503906 454.0
145.06614685058594 14982.0
146.05831909179688 154.0
147.0828094482422 443.0
149.02430725097656 531.0
150.05569458007812 10195.0
151.0406036376953 288.0
155.06666564941406 767.0
159.0447998046875 26617.0
160.07826232910156 202.0
161.05809020996094 154.0
170.05679321289062 752.0
171.04461669921875 92299.0
172.04820251464844 530.0
173.06393432617188 27389.0
175.08026123046875 2778.0
176.07138061523438 401.0
188.07522583007812 183.0
190.05308532714844 344.0
200.07373046875 906.0
201.05751037597656 343418.0
203.07431030273438 245.0
206.12342834472656 4065.0
218.08262634277344 900.0
246.1158905029297 283.0
273.306640625 176.0
274.1471252441406 38135.0

Name: Piperlonguminine
Precursor_mz: 274.1439135
Cas: 12/9/50
Adduct: [M+H]+
Mz: 274.1437699
Comment: Minor
Smiles: CC(C)CNC(=O)/C=C/C=C/c1ccc2c(c1)OCO2
Formula: C16H19NO3
Mix: Alkaloids-pos-mix44
Rt: [4.177, 4.426]
Rt_apex: 4.242743934
Rt_start: 4.215266667
Rt_end: 4.3216
Ms1_intensity: 2283717
N_scnas: 15
Ms1_scan_range: [876, 880, 892]
Reci_snr: 0.000357501
Ms2_scan_idx: 2137
Pmz_offset: 0.002193675
Entropy: 0.9982309341430664
Num Peaks: 46
41.03885269165039 4923.0
50.01487731933594 201.0
51.02229690551758 1528.0
55.01805114746094 500.0
57.070823669433594 9906.0
65.03846740722656 744.0
72.08486938476562 189.0
77.0391845703125 17396.0
79.05378723144531 6161.0
89.03681182861328 4549.0
91.05561065673828 2941.0
93.03475952148438 1795.0
95.04887390136719 690.0
96.04476165771484 888.0
101.03857421875 233.0
103.05443572998047 4535.0
105.03555297851562 6550.0
107.050048828125 764.0
114.04755401611328 303.0
115.05538940429688 301863.0
116.06010437011719 512.0
117.06917572021484 9597.0
123.04562377929688 1401.0
127.05667877197266 3698.0
128.06155395507812 202.0
131.0485076904297 762.0
135.0449981689453 230783.0
142.06158447265625 352.0
143.0501708984375 64728.0
144.05227661132812 190.0
145.0646514892578 5479.0
146.06021118164062 222.0
149.0193634033203 289.0
150.05589294433594 4794.0
155.06163024902344 619.0
159.04678344726562 10578.0
170.06251525878906 279.0
171.0448455810547 27792.0
172.05210876464844 411.0
173.06417846679688 10292.0
175.0767822265625 620.0
200.0759735107422 296.0
201.0577850341797 89059.0
206.12168884277344 1325.0
218.08291625976562 332.0
274.14752197265625 5485.0

Name: Piperlonguminine
Precursor_mz: 274.1441026
Cas: 12/9/50
Adduct: [M+H]+
Mz: 274.1437699
Comment: isomer
Smiles: CC(C)CNC(=O)/C=C/C=C/c1ccc2c(c1)OCO2
Formula: C16H19NO3
Mix: Alkaloids-pos-mix44
Rt: [4.177, 4.426]
Rt_apex: 4.363943079
Rt_start: 4.3216
Rt_end: 4.903216667
Ms1_intensity: 529468
N_scnas: 112
Ms1_scan_range: [892, 898, 1005]
Reci_snr: 0.002017444
Ms2_scan_idx: 2222
Pmz_offset: 0.00238276
Entropy: 0.9945403933525085
Num Peaks: 37
41.03784942626953 1519.0
51.02216720581055 520.0
55.017913818359375 123.0
57.069618225097656 2695.0
65.03943634033203 270.0
77.03775787353516 5006.0
79.05608367919922 2292.0
89.03791046142578 1062.0
91.05404663085938 945.0
93.0331802368164 417.0
95.05274200439453 246.0
96.0417709350586 183.0
103.0541763305664 1816.0
105.03385162353516 1978.0
107.05413818359375 92.0
115.05510711669922 83375.0
116.0567855834961 154.0
117.07040405273438 2706.0
123.0406494140625 334.0
127.05477905273438 1233.0
131.04978942871094 154.0
135.04629516601562 51181.0
142.06793212890625 154.0
143.05148315429688 17444.0
145.0642852783203 1624.0
150.0520782470703 1677.0
155.0699920654297 123.0
159.0446014404297 2794.0
171.0462646484375 7416.0
172.0590362548828 92.0
173.06004333496094 2774.0
175.07447814941406 244.0
200.07945251464844 123.0
201.05528259277344 17439.0
206.11915588378906 493.0
218.08236694335938 172.0
274.1468200683594 1238.0

Name: tricoumaroyl spermidine
Precursor_mz: 584.2757584
Cas: 131086-78-7
Adduct: [M+H]+
Mz: 584.2755124
Comment: Major
Smiles: O=C(/C=C/c1ccc(O)cc1)NCCCCN(CCCNC(=O)/C=C/c1ccc(O)cc1)C(=O)/C=C/c1ccc(O)cc1
Formula: C34H37N3O6
Mix: Alkaloids-pos-mix44
Rt: [3.228]
Rt_apex: 3.229225689
Rt_start: 3.130683333
Rt_end: 3.57965
Ms1_intensity: 694583
N_scnas: 73
Ms1_scan_range: [698, 713, 772]
Reci_snr: 0.000604352
Ms2_scan_idx: 1542
Pmz_offset: 0.000993791
Entropy: 0.9981238842010498
Num Peaks: 28
72.08000183105469 767.0
84.08356475830078 213.0
91.05414581298828 2586.0
110.09426879882812 154.0
112.11189270019531 936.0
119.04821014404297 5292.0
129.13877868652344 1257.0
146.1634979248047 388.0
147.04537963867188 66849.0
155.1156005859375 642.0
172.14393615722656 1177.0
198.125244140625 154.0
203.1203155517578 2169.0
204.10353088378906 73030.0
217.1386260986328 1684.0
218.11993408203125 4422.0
221.12928771972656 1267.0
235.1427764892578 186.0
273.1651306152344 209.0
274.193603515625 1874.0
275.1774597167969 10531.0
292.2083435058594 21773.0
318.1824645996094 1559.0
420.2345275878906 30575.0
421.218994140625 3992.0
438.24249267578125 109084.0
464.2255554199219 383.0
584.2817993164062 12055.0

Name: tricoumaroyl spermidine
Precursor_mz: 606.2591201
Cas: 131086-78-7
Adduct: [M+Na]+
Mz: 606.2574566
Comment: Major
Smiles: O=C(/C=C/c1ccc(O)cc1)NCCCCN(CCCNC(=O)/C=C/c1ccc(O)cc1)C(=O)/C=C/c1ccc(O)cc1
Formula: C34H37N3O6
Mix: Alkaloids-pos-mix44
Rt: [3.228]
Rt_apex: 3.244212515
Rt_start: 3.143683333
Rt_end: 3.633966667
Ms1_intensity: 140253
N_scnas: 80
Ms1_scan_range: [700, 715, 781]
Reci_snr: 0.001723414
Ms2_scan_idx: 1544
Pmz_offset: 0.000807016
Entropy: 1.0000001192092896
Num Peaks: 11
119.05280303955078 154.0
147.04537963867188 6706.0
203.1203155517578 93.0
204.10153198242188 6696.0
292.1939392089844 340.0
403.162109375 92.0
438.24542236328125 558.0
442.220458984375 92.0
458.22198486328125 154.0
460.2158203125 272.0
606.2625122070312 92867.0

Name: Candicine
Precursor_mz: 180.1380886
Cas: 6656-13-9
Adduct: [M]+
Mz: 180.1382906
Comment: Major
Smiles: C[N+](C)(C)CCc1ccc(O)cc1
Formula: C11H18NO+
Mix: Alkaloids-pos-mix44
Rt: [0.57]
Rt_apex: 0.579823386
Rt_start: 0.4821
Rt_end: 0.8583
Ms1_intensity: 787342
N_scnas: 94
Ms1_scan_range: [145, 163, 240]
Reci_snr: 0.000711944
Ms2_scan_idx: 250
Pmz_offset: 0.001808971
Entropy: 1.0
Num Peaks: 28
41.03872299194336 367.0
43.018280029296875 94.0
44.048824310302734 998.0
45.056705474853516 625.0
50.01670837402344 798.0
51.02313995361328 12539.0
53.03745651245117 517.0
55.017879486083984 599.0
58.06620407104492 123.0
60.07988357543945 5437.0
63.023746490478516 77.0
65.03939819335938 2505.0
66.0471420288086 199.0
77.03894805908203 114315.0
78.04485321044922 830.0
79.05353546142578 198.0
81.03221893310547 131.0
91.05398559570312 50795.0
93.06967163085938 23353.0
94.04154968261719 1357.0
95.04721069335938 1316.0
101.03826141357422 145.0
102.04512023925781 2525.0
103.05411529541016 51707.0
105.04241943359375 934.0
119.04953002929688 202.0
121.06539154052734 105379.0
180.13885498046875 1737.0

Name: Oxysanguinarine
Precursor_mz: 348.0862513
Cas: 548-30-1
Adduct: [M+H]+
Mz: 348.086649
Comment: Major
Smiles: Cn1c(=O)c2c3c(ccc2c2ccc4cc5c(cc4c21)OCO5)OCO3
Formula: C20H13NO5
Mix: Alkaloids-pos-mix44
Rt: [4.356]
Rt_apex: 4.35562458
Rt_start: 4.307766667
Rt_end: 5.051383333
Ms1_intensity: 49442
N_scnas: 138
Ms1_scan_range: [890, 897, 1029]
Reci_snr: 0.01512791
Ms2_scan_idx: 2225
Pmz_offset: 0.001198955
Entropy: 1.0
Num Peaks: 24
191.06991577148438 299.0
203.07408142089844 92.0
219.06581115722656 574.0
244.0899200439453 93.0
247.0587921142578 1004.0
248.07008361816406 520.0
249.0812225341797 472.0
259.061767578125 420.0
262.0814208984375 465.0
272.0734558105469 93.0
275.05841064453125 608.0
276.0694580078125 288.0
277.0706787109375 615.0
290.0768737792969 301.0
302.0750427246094 93.0
303.04656982421875 498.0
304.061279296875 492.0
305.0703125 7415.0
318.08447265625 282.0
320.0924377441406 616.0
331.05377197265625 183.0
332.0554504394531 299.0
333.06634521484375 8165.0
348.08917236328125 3651.0

Name: Isocorynoxeine
Precursor_mz: 405.1781274
Cas: 51014-29-0
Adduct: [M+Na]+
Mz: 405.178478
Comment: Major
Smiles: C=C[C@H]1CN2CC[C@@]3(C(=O)Nc4ccccc43)[C@@H]2C[C@@H]1/C(=C\OC)C(=O)OC
Formula: C22H26N2O4
Mix: Alkaloids-pos-mix44
Rt: [2.683, 2.777]
Rt_apex: 2.775775532
Rt_start: 2.731533333
Rt_end: 3.030083333
Ms1_intensity: 65172
N_scnas: 49
Ms1_scan_range: [631, 638, 681]
Reci_snr: 0.005112194
Ms2_scan_idx: 1221
Pmz_offset: 0.000528045
Entropy: 1.0
Num Peaks: 5
228.10533142089844 93.0
238.14979553222656 342.0
246.10906982421875 123.0
351.146240234375 123.0
405.18182373046875 9022.0

Name: Guanfu base A
Precursor_mz: 430.2240222
Cas: 1394-48-5
Adduct: [M+H]+
Mz: 430.2224142
Comment: Major
Smiles: C=C1C[C@@]23C[C@H]4[C@@H]5[C@]6(C)C[C@H](OC(C)=O)C[C@@]57[C@@H]2[C@H](O)[C@@H]1C(OC(C)=O)[C@]3(O)[C@H]7N4C6
Formula: C24H31NO6
Mix: Alkaloids-pos-mix44
Rt: [1.947]
Rt_apex: 1.949019657
Rt_start: 1.899266667
Rt_end: 2.330616667
Ms1_intensity: 10558441
N_scnas: 78
Ms1_scan_range: [479, 488, 558]
Reci_snr: 1.28e-05
Ms2_scan_idx: 836
Pmz_offset: 0.002593968
Entropy: 0.9484902024269104
Num Peaks: 243
42.03448486328125 116.0
43.01826095581055 396.0
44.04973602294922 461.0
51.02211380004883 69.0
55.055335998535156 213.0
56.05109405517578 295.0
57.03351974487305 1876.0
58.06617736816406 311.0
60.046138763427734 65.0
65.03936767578125 77.0
67.05341339111328 435.0
68.04995727539062 176.0
69.0328598022461 185.0
70.06391906738281 182.0
72.04529571533203 123.0
79.05474853515625 2670.0
80.04857635498047 263.0
81.0688247680664 1579.0
82.06375122070312 355.0
83.04811096191406 158.0
84.04478454589844 277.0
86.05855560302734 184.0
88.03558349609375 284.0
91.05394744873047 6964.0
94.06464385986328 817.0
96.08018493652344 421.0
97.06623840332031 96.0
98.06149291992188 204.0
102.04507446289062 141.0
103.05265045166016 1008.0
104.06230926513672 67.0
105.0682601928711 32099.0
106.06604766845703 210.0
107.08306121826172 3249.0
108.07721710205078 520.0
110.0601577758789 257.0
112.07450103759766 88.0
114.05314636230469 76.0
115.05347442626953 1996.0
116.06120300292969 608.0
117.07028198242188 1976.0
118.06390380859375 432.0
119.0846939086914 3092.0
120.0806655883789 843.0
121.1008529663086 10832.0
122.09434509277344 573.0
123.06854248046875 140.0
124.07786560058594 239.0
127.0499038696289 292.0
128.05950927734375 1524.0
129.06832885742188 3076.0
130.06190490722656 964.0
131.08338928222656 9788.0
132.07823181152344 1120.0
133.10110473632812 1308.0
134.09706115722656 1091.0
135.0803985595703 637.0
136.07553100585938 171.0
141.07093811035156 878.0
142.0727996826172 832.0
143.0798797607422 3136.0
144.0803985595703 129732.0
145.09963989257812 1204.0
146.09701538085938 2676.0
147.08079528808594 1445.0
148.1122589111328 416.0
149.09593200683594 10286.0
150.08973693847656 248.0
151.11099243164062 191.0
152.05955505371094 297.0
153.0701141357422 828.0
154.07357788085938 465.0
155.08555603027344 3066.0
156.08155822753906 2581.0
157.0930633544922 2712.0
158.09547424316406 12885.0
159.108154296875 704.0
160.07614135742188 3336.0
161.096923828125 261.0
162.0887908935547 825.0
163.0962371826172 64.0
164.1068115234375 1782.0
165.06822204589844 1228.0
166.07763671875 556.0
167.0828857421875 1380.0
168.07843017578125 385.0
169.09881591796875 2329.0
170.0966796875 1251.0
171.08094787597656 584.0
172.1085662841797 1837.0
173.0930938720703 497.0
174.091552734375 2356.0
176.1082305908203 1050.0
178.07472229003906 730.0
179.08741760253906 1808.0
180.09356689453125 614.0
181.1025390625 2272.0
182.0991668701172 973.0
183.1137237548828 1185.0
184.112060546875 639.0
185.09402465820312 358.0
186.0919952392578 607.0
187.10800170898438 198.0
188.10752868652344 825.0
189.07113647460938 135.0
190.122314453125 299.0
191.0832977294922 567.0
192.0914306640625 1735.0
193.1002655029297 2713.0
194.09609985351562 859.0
195.11605834960938 3033.0
196.11117553710938 1723.0
197.1304931640625 1377.0
198.1307373046875 1362.0
199.10775756835938 231.0
200.10504150390625 1072.0
201.12274169921875 119.0
202.07717895507812 399.0
203.0858612060547 534.0
204.09506225585938 610.0
205.1027374267578 1151.0
206.1068572998047 1621.0
207.11746215820312 2701.0
208.11636352539062 1163.0
209.12985229492188 1833.0
210.12953186035156 1079.0
211.14585876464844 663.0
212.10740661621094 335.0
213.1162109375 101.0
214.11920166015625 575.0
215.08749389648438 267.0
216.09303283691406 416.0
217.1071319580078 783.0
218.1090850830078 1445.0
219.11126708984375 1189.0
220.11575317382812 975.0
221.12879943847656 3181.0
222.12535095214844 1205.0
223.1492919921875 1582.0
224.14405822753906 405.0
225.16000366210938 546.0
226.1233673095703 363.0
227.14378356933594 110.0
228.14317321777344 134.0
229.10653686523438 116.0
230.10597229003906 405.0
231.11611938476562 435.0
232.12420654296875 1112.0
233.13018798828125 1003.0
234.12762451171875 1398.0
235.1465606689453 1998.0
236.14613342285156 844.0
237.16078186035156 965.0
238.1581268310547 258.0
239.14454650878906 536.0
240.1351776123047 225.0
241.14529418945312 83.0
242.12257385253906 400.0
243.11935424804688 120.0
244.1028289794922 157.0
245.13002014160156 615.0
246.12416076660156 311.0
247.1467742919922 1095.0
248.1449737548828 2302.0
249.14962768554688 1824.0
250.1585235595703 2511.0
251.12942504882812 418.0
253.16395568847656 640.0
254.1898956298828 2653.0
255.1416778564453 73.0
256.13568115234375 82.0
257.1361083984375 150.0
259.1360168457031 543.0
260.12646484375 145.0
261.1323547363281 155.0
262.1629333496094 809.0
263.1682434082031 8835.0
264.1754455566406 219823.0
265.16400146484375 437.0
266.1910705566406 623.0
267.1627502441406 142.0
268.1706848144531 617.0
269.1390380859375 84.0
270.1460876464844 56.0
273.1483154296875 136.0
274.16046142578125 1883.0
275.14892578125 176.0
276.1391296386719 681.0
277.1474914550781 6512.0
279.1321716308594 147.0
280.1671142578125 671.0
282.1861267089844 27088.0
290.15545654296875 335.0
291.16510009765625 347.0
292.17169189453125 336069.0
293.17523193359375 167.0
294.1468200683594 364.0
295.1681823730469 102.0
296.208251953125 56.0
300.1971435546875 106.0
306.188720703125 125.0
308.1612854003906 100.0
309.23138427734375 371.0
310.1822204589844 236043.0
323.1903076171875 7727.0
324.19769287109375 76910.0
328.1921691894531 612.0
334.1835632324219 1280.0
337.1686706542969 292.0
340.1955261230469 101.0
341.1979675292969 346.0
342.20965576171875 6688.0
351.11419677734375 262.0
352.19580078125 114855.0
370.20269775390625 252709.0
371.2159423828125 63.0
388.21875 64.0
394.2003479003906 681.0
412.2142639160156 5264.0
428.9054870605469 4416.0
430.2259826660156 1185875.0
431.3065490722656 2740.0
431.44354248046875 3019.0
431.78466796875 791.0
431.90423583984375 189.0
432.0092468261719 102.0
432.22509765625 130.0
432.33599853515625 97.0
432.45562744140625 97.0
432.5606994628906 75.0
432.8876647949219 89.0
433.0278015136719 90.0
433.2994384765625 66.0
433.4221496582031 94.0
433.5302429199219 84.0
433.810791015625 66.0
433.9189453125 89.0
434.0271301269531 95.0
434.16162109375 65.0
434.5389099121094 62.0
434.74957275390625 61.0
436.0262756347656 66.0
436.13177490234375 55.0

Name: Arborine
Precursor_mz: 251.1183628
Cas: 6873-15-0
Adduct: [M+H]+
Mz: 251.1178895
Comment: Major
Smiles: Cn1c(Cc2ccccc2)nc(=O)c2ccccc21
Formula: C16H14N2O
Mix: Alkaloids-pos-mix44
Rt: [3.21]
Rt_apex: 3.209315059
Rt_start: 3.156833333
Rt_end: 4.075283333
Ms1_intensity: 6884335
N_scnas: 152
Ms1_scan_range: [702, 710, 855]
Reci_snr: 0.000397669
Ms2_scan_idx: 1524
Pmz_offset: 0.001840576
Entropy: 0.9971031546592712
Num Peaks: 127
42.03362274169922 5434.0
44.01347351074219 439.0
50.01376724243164 318.0
51.02317810058594 1067.0
63.024906158447266 420.0
65.03831481933594 4558.0
75.02366638183594 315.0
77.03900146484375 21142.0
78.04367065429688 556.0
79.05484771728516 7762.0
80.04866790771484 346.0
87.02210998535156 328.0
88.01594543457031 221.0
89.03925323486328 13853.0
90.04716491699219 3253.0
91.0553970336914 154812.0
92.04499816894531 340.0
93.05755615234375 5994.0
94.06612396240234 495.0
95.04727935791016 168.0
101.03551483154297 1895.0
102.03243255615234 352.0
103.05277252197266 3658.0
104.05097961425781 103894.0
105.03386688232422 3156.0
106.06472778320312 47184.0
107.0512466430664 840.0
108.08026123046875 2540.0
114.02930450439453 277.0
115.0536117553711 2238.0
116.0507583618164 24802.0
117.05675506591797 9451.0
118.06404876708984 44915.0
119.04962158203125 555.0
120.080810546875 10203.0
127.0516357421875 264.0
128.04855346679688 14805.0
129.04298400878906 1389.0
130.0652618408203 10975.0
131.06105041503906 3255.0
132.0670928955078 5596.0
133.06727600097656 25643.0
134.05984497070312 10335.0
139.0548553466797 1122.0
140.0462188720703 446.0
141.06277465820312 394.0
143.06661987304688 444.0
144.04689025878906 991.0
145.07614135742188 2842.0
146.0615692138672 149838.0
147.06735229492188 906.0
148.0765838623047 93168.0
150.04693603515625 471.0
151.05252075195312 2409.0
152.0614776611328 4436.0
153.07203674316406 441.0
154.0633087158203 261.0
155.06301879882812 323.0
157.0738983154297 174.0
158.04978942871094 397.0
159.0587921142578 508.0
161.0792999267578 272.0
163.0570068359375 3072.0
164.06027221679688 4113.0
165.07022094726562 48839.0
166.08145141601562 2194.0
167.08489990234375 5580.0
168.0804443359375 443.0
173.07115173339844 308.0
174.08619689941406 1465.0
175.08935546875 172.0
176.0618896484375 3941.0
177.06884765625 2335.0
178.07867431640625 39666.0
179.08763122558594 18350.0
180.08059692382812 12987.0
181.0895233154297 2181.0
182.0974884033203 2918.0
183.09686279296875 261.0
184.07229614257812 170.0
188.04425048828125 241.0
189.06556701660156 1268.0
190.06643676757812 96044.0
191.07382202148438 12298.0
192.08193969726562 8408.0
193.0907440185547 137451.0
194.09828186035156 3226.0
195.09669494628906 219.0
196.11337280273438 12147.0
197.07359313964844 247.0
202.06744384765625 225.0
203.07611083984375 1043.0
204.08328247070312 32208.0
205.0889129638672 8989.0
206.09703063964844 38830.0
207.09548950195312 20365.0
208.10447692871094 71259.0
209.08546447753906 4024.0
210.08706665039062 506.0
211.08901977539062 1622.0
214.06607055664062 262.0
216.06854248046875 4963.0
217.0763702392578 176273.0
218.0865478515625 7988.0
219.0699920654297 38144.0
220.07855224609375 1989.0
221.11236572265625 3504.0
222.11724853515625 1576.0
223.12649536132812 6761.0
224.1107177734375 1781.0
231.09506225585938 857.0
232.09881591796875 1412.0
233.1133270263672 4120.0
234.095703125 24474.0
235.08872985839844 482617.0
236.09896850585938 7303.0
249.1078338623047 2260.0
250.11000061035156 289.0
250.35195922851562 4261.0
251.12306213378906 808007.0
251.93988037109375 1974.0
252.0423583984375 1977.0
252.31201171875 880.0
252.4836883544922 165.0
252.64202880859375 221.0
252.8160400390625 170.0
254.2058563232422 203.0

Name: Tioconazole
Precursor_mz: 386.9877549
Cas: 65899-73-2
Adduct: [M+H]+
Mz: 386.9886937
Comment: Major
Smiles: Clc1ccc(C(Cn2ccnc2)OCc2ccsc2Cl)c(Cl)c1
Formula: C16H13Cl3N2OS
Mix: Alkaloids-pos-mix45
Rt: [1.985]
Rt_apex: 4.060905026
Rt_start: 3.9439
Rt_end: 4.272716667
Ms1_intensity: 11873
N_scnas: 46
Ms1_scan_range: [887, 903, 934]
Reci_snr: 0.001374132
Ms2_scan_idx: 2293
Pmz_offset: 0.000709642
Entropy: 0.9999999403953552
Num Peaks: 3
94.98992156982422 93.0
130.97442626953125 5394.0
386.9955139160156 718.0

Name: Dehydrocorydaline
Precursor_mz: 366.1692647
Cas: 30045-16-0
Adduct: [M]+
Mz: 366.1699847
Comment: Major
Smiles: COc1cc2c(cc1OC)-c1c(C)c3ccc(OC)c(OC)c3c[n+]1CC2
Formula: C22H24NO4+
Mix: Alkaloids-pos-mix45
Rt: [0.302]
Rt_apex: 3.084666429
Rt_start: 3.023633333
Rt_end: 3.14995
Ms1_intensity: 10738
N_scnas: 18
Ms1_scan_range: [750, 759, 769]
Reci_snr: 0.003879948
Ms2_scan_idx: 1536
Pmz_offset: 0.001429128
Entropy: 1.0
Num Peaks: 11
292.10260009765625 215.0
306.11798095703125 344.0
308.1322021484375 385.0
318.11468505859375 93.0
322.1421203613281 668.0
334.09942626953125 292.0
335.1211242675781 123.0
336.1263732910156 485.0
350.1424560546875 1308.0
351.15679931640625 453.0
366.16949462890625 847.0

Name: Arecaidine hydrochloride
Precursor_mz: 142.0857441
Cas: 6018-28-6
Adduct: [M+H]+
Mz: 142.0862551
Comment: Major
Smiles: CN1CCC=C(C(=O)O)C1
Formula: C7H11NO2
Mix: Alkaloids-pos-mix45
Rt: [0.302]
Rt_apex: 0.300527239
Rt_start: 0.266483333
Rt_end: 0.551266667
Ms1_intensity: 760885
N_scnas: 63
Ms1_scan_range: [94, 99, 158]
Reci_snr: 6.98e-05
Ms2_scan_idx: 145
Pmz_offset: 0.001672719
Entropy: 0.9380832314491272
Num Peaks: 11
42.032745361328125 1127.0
43.041358947753906 260.0
44.04982376098633 61803.0
53.037532806396484 648.0
67.04204559326172 31.0
70.06522369384766 31.0
81.0323257446289 209.0
82.05626678466797 31.0
94.06616973876953 92.0
96.08585357666016 93.0
142.0930938720703 474.0

Name: Galanthamine N-Oxide
Precursor_mz: 304.1557659
Cas: 134332-50-6
Adduct: [M+H]+
Mz: 304.1543346
Comment: Major
Smiles: COc1ccc2c3c1O[C@H]1C[C@@H](O)C=C[C@@]31CC[N@@+](C)([O-])C2
Formula: C17H21NO4
Mix: Alkaloids-pos-mix45
Rt: [1.593]
Rt_apex: 1.594760374
Rt_start: 1.5439
Rt_end: 1.717216667
Ms1_intensity: 1003411
N_scnas: 27
Ms1_scan_range: [490, 499, 518]
Reci_snr: 0.001266494
Ms2_scan_idx: 641
Pmz_offset: 0.002686465
Entropy: 0.9903048872947693
Num Peaks: 118
42.033748626708984 550.0
43.017520904541016 735.0
44.05084991455078 315.0
55.01704025268555 1847.0
60.04420852661133 2575.0
74.06184387207031 301.0
77.0379867553711 337.0
79.05132293701172 286.0
81.0350341796875 190.0
91.05430603027344 1501.0
93.05780792236328 746.0
103.05304718017578 608.0
105.07154846191406 2109.0
107.04572296142578 429.0
108.05574798583984 324.0
109.06905364990234 215.0
115.05391693115234 1640.0
117.0692138671875 364.0
121.06271362304688 1202.0
123.08146667480469 252.0
127.05513000488281 1427.0
128.06158447265625 1646.0
129.06723022460938 1110.0
131.05015563964844 1136.0
132.05776977539062 427.0
133.06761169433594 170.0
135.07928466796875 2474.0
137.06004333496094 339.0
141.06813049316406 3136.0
142.07835388183594 1871.0
143.08377075195312 1026.0
144.057373046875 584.0
145.06300354003906 1663.0
146.0704345703125 830.0
147.0813446044922 200.0
148.0513458251953 215.0
150.05764770507812 265.0
151.07533264160156 1022.0
152.0635986328125 2568.0
153.0724334716797 2903.0
154.07415771484375 424.0
155.0459442138672 4969.0
157.0672607421875 440.0
158.06961059570312 900.0
159.0804443359375 964.0
160.0909423828125 585.0
161.09930419921875 871.0
162.0643768310547 387.0
163.0789337158203 561.0
165.06883239746094 3459.0
166.0836944580078 2701.0
167.0853271484375 1070.0
168.05722045898438 1406.0
169.06478881835938 8058.0
170.0717010498047 7086.0
171.0815887451172 840.0
173.0992889404297 730.0
174.06813049316406 2608.0
175.07681274414062 2554.0
176.0791015625 209.0
177.0711669921875 334.0
178.0772705078125 662.0
179.0880889892578 1387.0
180.06222534179688 605.0
181.0692138671875 10288.0
182.07333374023438 22716.0
183.04415893554688 19542.0
184.0499267578125 836.0
185.09854125976562 8201.0
187.07608032226562 843.0
188.07936096191406 1478.0
189.0911407470703 1926.0
190.0823974609375 657.0
191.08401489257812 1192.0
193.06393432617188 425.0
194.0753173828125 1480.0
195.07757568359375 2219.0
196.0902862548828 275.0
197.060302734375 6248.0
198.0702362060547 165619.0
199.0748291015625 1589.0
200.0760040283203 471.0
201.08966064453125 2150.0
202.09188842773438 217.0
203.1046142578125 1788.0
207.08389282226562 396.0
209.09613037109375 4508.0
210.0692901611328 698.0
211.0752716064453 2157.0
212.0877685546875 1151.0
213.09446716308594 203711.0
214.1015167236328 1300.0
215.07388305664062 536.0
216.10415649414062 5249.0
217.1265411376953 245.0
223.07675170898438 312.0
224.0818634033203 358.0
225.09556579589844 2205.0
226.105224609375 523.0
227.11289978027344 907.0
228.103759765625 2506.0
229.0882568359375 1257.0
230.09405517578125 712.0
231.10630798339844 27345.0
240.1077880859375 287.0
241.1243896484375 467.0
244.13223266601562 3401.0
245.1155548095703 793.0
254.11700439453125 611.0
256.14111328125 223.0
258.11236572265625 243.0
269.142333984375 684.0
270.15399169921875 792.0
271.1259460449219 555.0
272.1274108886719 223.0
286.1448974609375 15764.0
287.1570739746094 862.0
304.1599426269531 26701.0

Name: Vinblastine sulfate
Precursor_mz: 833.4133822
Cas: 143-67-9
Adduct: [M+Na]+
Mz: 833.4096002
Comment: Major
Smiles: CC[C@]1(O)C[C@H]2C[N@@](CCc3c([nH]c4ccccc34)[C@@](C(=O)OC)(c3cc4c(cc3OC)N(C)[C@H]3[C@@](O)(C(=O)OC)[C@H](OC(C)=O)[C@]5(CC)C=CCN6CC[C@]43[C@@H]65)C2)C1
Formula: C46H58N4O9
Mix: Alkaloids-pos-mix45
Rt: [3.122]
Rt_apex: 3.119343582
Rt_start: 3.0833
Rt_end: 3.316116667
Ms1_intensity: 21915
N_scnas: 33
Ms1_scan_range: [759, 764, 793]
Reci_snr: 0.007621781
Ms2_scan_idx: 1585
Pmz_offset: 0.00077687
Entropy: 1.0
Num Peaks: 11
224.12342834472656 154.0
522.2871704101562 154.0
540.290771484375 93.0
542.2987670898438 246.0
564.2822875976562 93.0
649.3759765625 196.0
659.3485107421875 93.0
713.3539428710938 154.0
751.4280395507812 254.0
773.3904418945312 1122.0
833.4197387695312 6253.0

Name: Acetylcytisine
Precursor_mz: 233.1277981
Cas: 6018-52-6
Adduct: [M+H]+
Mz: 233.1284542
Comment: Major
Smiles: CC(=O)N1CC2C[C@@H](C1)c1cccc(=O)n1C2
Formula: C13H16N2O2
Mix: Alkaloids-pos-mix45
Rt: [1.703]
Rt_apex: 1.7010123
Rt_start: 1.6549
Rt_end: 1.831816667
Ms1_intensity: 1259639
N_scnas: 31
Ms1_scan_range: [508, 516, 540]
Reci_snr: 0.001192956
Ms2_scan_idx: 722
Pmz_offset: 1.61e-05
Entropy: 0.9988386034965515
Num Peaks: 54
42.03281021118164 617.0
43.01749038696289 2967.0
44.049888610839844 37080.0
53.03761291503906 196.0
55.015960693359375 244.0
67.04214477539062 123.0
70.06414794921875 453.0
77.03669738769531 963.0
78.03266906738281 347.0
79.05126190185547 690.0
80.04757690429688 764.0
82.06401062011719 877.0
89.0394287109375 343.0
90.04468536376953 204.0
91.05290222167969 957.0
92.04922485351562 331.0
93.06722259521484 615.0
94.0663070678711 545.0
96.04610443115234 230.0
103.05439758300781 1647.0
104.04832458496094 2705.0
105.06715393066406 1254.0
106.06493377685547 764.0
107.04855346679688 123.0
108.04400634765625 286.0
110.05903625488281 509.0
115.05384063720703 2965.0
116.04946899414062 737.0
117.05850219726562 5598.0
118.06427764892578 1336.0
119.0712890625 281.0
120.07949829101562 4464.0
122.06061553955078 1684.0
128.05038452148438 223.0
130.06552124023438 2602.0
131.07095336914062 732.0
132.0818634033203 2676.0
133.05294799804688 4860.0
134.0617218017578 1088.0
141.05636596679688 231.0
142.0648651123047 2925.0
143.07528686523438 875.0
144.08421325683594 318.0
145.0510711669922 663.0
146.05845642089844 5669.0
147.07273864746094 1403.0
148.0768585205078 109051.0
159.0697021484375 310.0
160.07662963867188 21513.0
162.0928497314453 4008.0
190.09193420410156 404.0
191.11878967285156 51131.0
232.42218017578125 245.0
233.13088989257812 60110.0

Name: Hypaconine
Precursor_mz: 470.2762916
Cas: 63238-68-6
Adduct: [M+H]+
Mz: 470.2748437
Comment: Major
Smiles: COCC12CCC(OC)C34C5CC6(O)C(O)C5C(O)(C(O)C6OC)C(C(OC)C13)C4N(C)C2
Formula: C24H39NO8
Mix: Alkaloids-pos-mix45
Rt: [1.985]
Rt_apex: 1.980262559
Rt_start: 1.9105
Rt_end: 2.230516667
Ms1_intensity: 5670551
N_scnas: 54
Ms1_scan_range: [562, 574, 617]
Reci_snr: 5.86e-05
Ms2_scan_idx: 845
Pmz_offset: 0.00276395
Entropy: 0.7515329122543335
Num Peaks: 311
41.03789520263672 112.0
42.033660888671875 1112.0
43.016510009765625 185.0
44.04889678955078 10659.0
45.032291412353516 902.0
46.064632415771484 91.0
55.01484298706055 192.0
56.049102783203125 89.0
58.064151763916016 1356.0
59.047813415527344 98.0
67.05469512939453 223.0
69.0306625366211 139.0
70.06288146972656 702.0
71.04833221435547 741.0
74.05806732177734 536.0
75.04316711425781 529.0
77.03782653808594 407.0
79.05240631103516 764.0
80.0487289428711 194.0
81.03107452392578 345.0
82.06390380859375 341.0
83.05082702636719 201.0
84.07967376708984 961.0
85.02813720703125 2082.0
87.04180908203125 713.0
88.07525634765625 2357.0
89.0379867553711 86.0
91.05277252197266 2451.0
93.0698013305664 535.0
94.0634536743164 12951.0
95.04871368408203 710.0
96.08036041259766 575.0
97.02908325195312 719.0
99.03965759277344 331.0
100.07443237304688 360.0
102.05376434326172 97.0
103.05140686035156 261.0
105.06845092773438 1272.0
106.06334686279297 127.0
107.04550170898438 731.0
108.08032989501953 4257.0
109.0629653930664 983.0
110.09422302246094 2095.0
111.04454040527344 556.0
112.07618713378906 290.0
113.05887603759766 91.0
114.09231567382812 603.0
115.05518341064453 1364.0
116.0614013671875 214.0
117.06745147705078 1347.0
118.0641098022461 124.0
119.08490753173828 519.0
120.07779693603516 517.0
121.0655517578125 793.0
122.09455871582031 281.0
123.0438461303711 849.0
124.07495880126953 261.0
125.0224838256836 3480.0
126.088623046875 1323.0
127.05328369140625 308.0
128.0629119873047 1723.0
129.0669708251953 3282.0
130.0669403076172 142.0
131.08522033691406 2537.0
132.08006286621094 587.0
133.09971618652344 672.0
134.0924072265625 635.0
135.03985595703125 353.0
136.0757598876953 105.0
137.05975341796875 632.0
138.0901641845703 3214.0
139.0383758544922 388.0
140.1060791015625 8055.0
141.07118225097656 2257.0
142.07638549804688 775.0
143.08348083496094 3300.0
144.07559204101562 500.0
145.09988403320312 1123.0
146.0938720703125 650.0
147.07763671875 841.0
148.10910034179688 461.0
149.05677795410156 411.0
150.08999633789062 395.0
151.03707885742188 277.0
152.0632781982422 693.0
153.0686492919922 1340.0
154.0773162841797 881.0
155.0840606689453 3612.0
156.08181762695312 258.0
157.10035705566406 2555.0
158.0922088623047 560.0
159.08187866210938 1146.0
160.115478515625 488.0
161.0954132080078 848.0
162.09263610839844 173.0
163.1090545654297 276.0
164.10169982910156 255.0
165.07029724121094 1929.0
166.07791137695312 804.0
167.0867919921875 2698.0
168.08961486816406 361.0
169.10275268554688 2721.0
170.0969696044922 500.0
171.11427307128906 2390.0
172.11070251464844 1407.0
173.09707641601562 1004.0
174.12701416015625 588.0
175.11358642578125 304.0
176.10665893554688 197.0
177.0745391845703 150.0
178.07688903808594 1350.0
179.08583068847656 2524.0
180.09385681152344 451.0
181.10093688964844 3152.0
182.10704040527344 349.0
183.07984924316406 1270.0
184.1295166015625 702.0
185.09814453125 1239.0
186.12484741210938 563.0
187.11407470703125 948.0
188.11553955078125 223.0
189.12355041503906 698.0
190.07620239257812 365.0
191.08168029785156 1286.0
192.0917510986328 1167.0
193.1005859375 2656.0
194.114013671875 340.0
195.1183319091797 2041.0
196.11935424804688 458.0
197.09535217285156 1790.0
198.12710571289062 3413.0
199.1080780029297 1034.0
200.14309692382812 697.0
201.12107849121094 640.0
202.0755157470703 638.0
203.09019470214844 877.0
204.09539794921875 1000.0
205.09906005859375 1493.0
206.11122131347656 519.0
207.1177978515625 2497.0
208.08229064941406 286.0
209.0936737060547 1596.0
210.1258087158203 570.0
211.11154174804688 1694.0
212.1138916015625 235.0
213.124755859375 469.0
214.1277618408203 253.0
215.1063690185547 478.0
216.09132385253906 336.0
217.09921264648438 1490.0
218.10736083984375 257.0
219.11370849609375 1715.0
220.09112548828125 499.0
221.13124084472656 1713.0
222.1236114501953 351.0
223.114013671875 1663.0
224.1192169189453 371.0
225.1287841796875 1310.0
226.1216278076172 311.0
227.1082000732422 603.0
228.1435546875 200.0
229.09628295898438 773.0
230.15318298339844 610.0
231.12289428710938 662.0
232.08395385742188 396.0
233.0984344482422 704.0
234.11082458496094 390.0
235.11465454101562 2515.0
236.11416625976562 406.0
237.12875366210938 1640.0
238.11953735351562 408.0
239.138427734375 2516.0
240.13990783691406 337.0
241.12388610839844 656.0
242.149169921875 150.0
243.1372528076172 274.0
244.12953186035156 187.0
245.0930633544922 577.0
246.1025390625 232.0
247.1162872314453 1655.0
248.11663818359375 156.0
249.12786865234375 2022.0
250.12562561035156 393.0
251.11204528808594 632.0
252.13827514648438 331.0
253.12193298339844 1338.0
254.1477813720703 309.0
255.12864685058594 472.0
256.1360778808594 152.0
257.1230163574219 365.0
258.1546630859375 123.0
259.1138610839844 294.0
260.1540222167969 269.0
261.1259765625 321.0
262.18609619140625 229.0
263.10491943359375 1202.0
264.1393737792969 315.0
265.1210021972656 1282.0
266.13653564453125 195.0
267.1402282714844 1996.0
268.1687927246094 304.0
269.1118469238281 330.0
270.151123046875 212.0
271.13232421875 172.0
272.1615905761719 286.0
273.11627197265625 110.0
274.1004943847656 101.0
275.1097717285156 487.0
276.1348876953125 92.0
277.1175537109375 658.0
278.1581115722656 567.0
279.1419982910156 549.0
280.13232421875 124.0
281.1173400878906 1079.0
282.1512145996094 417.0
283.1279602050781 713.0
284.1631774902344 282.0
285.1481628417969 519.0
286.1443176269531 161.0
287.1326904296875 287.0
288.14898681640625 205.0
289.1145935058594 98.0
290.1750183105469 110.0
291.12005615234375 100.0
293.1180419921875 678.0
294.14727783203125 228.0
295.1373291015625 1151.0
296.1604309082031 654.0
297.1538391113281 344.0
298.14166259765625 257.0
299.1335754394531 194.0
300.16357421875 308.0
301.1466369628906 114.0
302.1800842285156 157.0
304.1593017578125 137.0
305.1464538574219 151.0
306.1548156738281 662.0
307.1402587890625 344.0
308.1617736816406 170.0
309.15045166015625 216.0
310.1777648925781 412.0
311.1300354003906 232.0
312.15570068359375 356.0
313.14825439453125 742.0
314.1722412109375 570.0
315.1679992675781 270.0
316.1578369140625 200.0
318.17474365234375 99.0
320.1553649902344 259.0
322.1698303222656 151.0
324.15777587890625 2097.0
325.1515197753906 477.0
326.17718505859375 386.0
327.1638488769531 325.0
328.1901550292969 668.0
330.1787109375 386.0
331.1535339355469 384.0
332.1885986328125 539.0
334.1661376953125 342.0
336.180419921875 229.0
337.1717834472656 99.0
338.1697692871094 654.0
339.1614685058594 116.0
342.1738586425781 1123.0
343.15582275390625 316.0
344.19384765625 430.0
345.16827392578125 357.0
346.1701965332031 1017.0
348.18621826171875 434.0
350.158203125 218.0
352.1805419921875 131.0
354.19549560546875 124.0
356.1870422363281 5314.0
357.1809387207031 213.0
358.2001037597656 270.0
360.1789245605469 2228.0
361.18902587890625 731.0
362.1925354003906 290.0
363.18408203125 365.0
364.2091064453125 692.0
366.19903564453125 285.0
370.1951599121094 633.0
374.19940185546875 6594.0
375.1800537109375 251.0
376.2191467285156 1150.0
378.1951599121094 5570.0
380.2037353515625 1185.0
388.2165832519531 7581.0
390.22662353515625 165.0
392.2084655761719 835.0
393.2124328613281 138.0
396.20123291015625 335.0
402.2353210449219 469.0
406.22491455078125 53431.0
408.23846435546875 1700.0
410.22283935546875 2340.0
420.2400207519531 4535.0
436.2379455566406 220.0
438.2510070800781 533332.0
439.2739562988281 93.0
468.8325500488281 3118.0
470.2800598144531 1393505.0
471.40673828125 2152.0
471.5499572753906 2051.0
471.9096374511719 653.0
472.0254821777344 230.0
472.1444091796875 115.0
472.4859924316406 101.0
472.97113037109375 97.0
474.2110595703125 103.0
474.5533752441406 86.0

Name: Skimmianine
Precursor_mz: 260.0909559
Cas: 83-95-4
Adduct: [M+H]+
Mz: 260.0917344
Comment: Major
Smiles: COc1ccc2c(OC)c3ccoc3nc2c1OC
Formula: C14H13NO4
Mix: Alkaloids-pos-mix45
Rt: [3.427]
Rt_apex: 3.426952481
Rt_start: 3.374766667
Rt_end: 3.576266667
Ms1_intensity: 6759585
N_scnas: 29
Ms1_scan_range: [802, 810, 832]
Reci_snr: 0.001332864
Ms2_scan_idx: 1812
Pmz_offset: 0.000318747
Entropy: 0.9980927109718323
Num Peaks: 105
51.0212287902832 757.0
55.015899658203125 182.0
65.03838348388672 609.0
67.01335144042969 238.0
74.01220703125 460.0
75.02374267578125 2695.0
76.0311279296875 1048.0
77.03784942626953 8867.0
78.0313491821289 361.0
80.04749298095703 190.0
88.03050994873047 364.0
89.03800964355469 5337.0
90.04458618164062 1090.0
91.05413818359375 3549.0
92.05047607421875 190.0
93.03733825683594 335.0
100.029541015625 315.0
101.0384292602539 46024.0
102.03253173828125 3155.0
103.04289245605469 2507.0
104.04821014404297 1517.0
105.0339584350586 1135.0
106.02580261230469 585.0
108.03951263427734 219.0
109.01317596435547 804.0
110.02505493164062 347.0
113.03801727294922 1085.0
114.04589080810547 5267.0
115.05220794677734 9106.0
116.04934692382812 13337.0
117.05533599853516 9774.0
118.06414794921875 4096.0
119.04666137695312 857.0
120.04247283935547 1266.0
126.03823852539062 412.0
127.04225158691406 2219.0
128.0486602783203 212052.0
129.044677734375 5549.0
130.02696228027344 6210.0
131.0338592529297 7390.0
132.0430145263672 1724.0
140.04965209960938 4344.0
141.05288696289062 4343.0
142.06471252441406 16136.0
143.07345581054688 2792.0
144.04364013671875 21185.0
145.05259704589844 35584.0
146.0583038330078 10632.0
148.0374298095703 550.0
149.04483032226562 171.0
152.0460205078125 577.0
153.06173706054688 188.0
154.05995178222656 289.0
155.03343200683594 2039.0
156.0450439453125 423742.0
157.0493927001953 3644.0
158.05873107910156 4090.0
159.0305938720703 19112.0
160.04095458984375 7804.0
162.01585388183594 929.0
168.044189453125 952.0
169.0517120361328 48296.0
170.05857849121094 36781.0
171.0647735595703 1731.0
172.03895568847656 38003.0
173.04544067382812 7014.0
174.0548553466797 23038.0
176.04153442382812 246.0
182.0616455078125 845.0
183.0286407470703 636.0
184.04006958007812 864963.0
185.04856872558594 3985.0
186.0559844970703 7889.0
187.0258331298828 53679.0
188.07325744628906 1216.0
196.034912109375 381.0
197.05010986328125 886.0
198.05606079101562 46945.0
199.06259155273438 1037764.0
200.03594970703125 20887.0
201.0435333251953 189962.0
202.0496368408203 347800.0
210.05874633789062 979.0
211.02597045898438 1800.0
212.0342559814453 62144.0
213.04287719726562 7666.0
214.0498046875 2440.0
215.05909729003906 16671.0
216.06663513183594 493509.0
217.08067321777344 238.0
226.04995727539062 27409.0
227.05963134765625 985804.0
228.0376434326172 24337.0
229.03900146484375 27145.0
230.04681396484375 219487.0
231.04615783691406 289.0
242.04661560058594 15309.0
244.06163024902344 169815.0
245.0689697265625 448491.0
246.07398986816406 239.0
259.30145263671875 1328.0
260.0929870605469 550013.0
260.9310607910156 688.0
261.1011047363281 529.0
261.302978515625 468.0

Name: N-trans-p-coumaroyloctopamine
Precursor_mz: 322.1075705
Cas: 66648-45-1
Adduct: [M+Na]+
Mz: 322.1049787
Comment: Major
Smiles: O=C(/C=C/c1ccc(O)cc1)NCC(O)c1ccc(O)cc1
Formula: C17H17NO4
Mix: Alkaloids-pos-mix46
Rt: [2.692]
Rt_apex: 2.646629362
Rt_start: 2.570466667
Rt_end: 2.7951
Ms1_intensity: 148044
N_scnas: 42
Ms1_scan_range: [745, 763, 788]
Reci_snr: 0.000931281
Ms2_scan_idx: 1038
Pmz_offset: 0.00248036
Entropy: 0.9901943206787109
Num Peaks: 100
65.03733825683594 72.0
77.03549194335938 84.0
89.03813934326172 1428.0
91.05293273925781 1418.0
103.054443359375 229.0
105.03699493408203 55.0
115.0553970336914 159.0
116.04801177978516 1179.0
117.03274536132812 687.0
118.061279296875 127.0
119.0499038696289 482.0
121.06731414794922 36.0
128.04727172851562 126.0
131.04530334472656 168.0
135.041748046875 197.0
142.06326293945312 66.0
143.04513549804688 48.0
144.0438690185547 906.0
146.0602264404297 221.0
147.04217529296875 3522.0
148.03765869140625 83.0
149.05877685546875 670.0
155.07562255859375 44.0
156.0435333251953 95.0
159.04678344726562 157.0
160.0376434326172 81.0
161.0422821044922 38.0
170.05702209472656 60.0
172.07420349121094 40.0
173.0623321533203 67.0
174.0551300048828 1521.0
175.06192016601562 60.0
176.0697479248047 291.0
177.06365966796875 61.0
178.0772247314453 115.0
179.08241271972656 106.0
186.05628967285156 100.0
187.06260681152344 48.0
188.06585693359375 57.0
189.0698699951172 315.0
191.07427978515625 252.0
192.08238220214844 38.0
193.09120178222656 58.0
196.0745391845703 50.0
200.0700225830078 382.0
202.08187866210938 64.0
203.08058166503906 43.0
204.07974243164062 291.0
205.08738708496094 196.0
206.0955047607422 527.0
207.07579040527344 116.0
208.1110382080078 66.0
213.0780487060547 105.0
216.08348083496094 58.0
217.06861877441406 165.0
218.08914184570312 94.0
219.0746612548828 139.0
220.07281494140625 198.0
221.07949829101562 146.0
222.08848571777344 60.0
224.07553100585938 113.0
225.0786895751953 291.0
226.08407592773438 359.0
232.07798767089844 89.0
233.0817413330078 180.0
234.08981323242188 650.0
235.0720672607422 163.0
236.108154296875 286.0
237.08383178710938 44.0
239.09765625 40.0
246.0919952392578 83.0
247.07925415039062 279.0
248.07069396972656 325.0
249.08848571777344 297.0
250.08616638183594 215.0
251.0902862548828 100.0
252.0830535888672 46.0
261.078857421875 71.0
262.08660888671875 549.0
263.1008605957031 266.0
264.1033935546875 2026.0
265.0872497558594 91.0
275.07073974609375 245.0
276.1004638671875 213.0
277.0760498046875 309.0
278.07672119140625 88.0
279.0932922363281 148.0
290.0823669433594 229.0
291.09429931640625 214.0
292.098388671875 1581.0
293.070556640625 71.0
294.11175537109375 820.0
304.0962829589844 38.0
305.08087158203125 48.0
306.0719299316406 121.0
307.0892333984375 164.0
318.082763671875 93.0
320.08819580078125 1286.0
321.11090087890625 121.0
322.1100158691406 27969.0

Name: 9-Hydroxycamptothecin
Precursor_mz: 365.1137907
Cas: 67656-30-8
Adduct: [M+H]+
Mz: 365.1131981
Comment: Major
Smiles: CC[C@]1(O)C(=O)OCc2c1cc1n(c2=O)Cc2cc3cc(O)ccc3nc2-1
Formula: C20H16N2O5
Mix: Alkaloids-pos-mix46
Rt: [2.68]
Rt_apex: 2.680911439
Rt_start: 2.496633333
Rt_end: 3.183633333
Ms1_intensity: 984112
N_scnas: 141
Ms1_scan_range: [730, 770, 872]
Reci_snr: 0.000525199
Ms2_scan_idx: 1064
Pmz_offset: 0.000806283
Entropy: 0.9861006140708923
Num Peaks: 94
57.0316276550293 3137.0
129.05767822265625 339.0
144.04222106933594 230.0
157.05145263671875 187.0
158.06256103515625 233.0
159.06629943847656 271.0
167.074462890625 351.0
170.0570831298828 202.0
180.08673095703125 239.0
182.06201171875 611.0
183.06507873535156 732.0
184.065185546875 20147.0
185.06993103027344 1773.0
191.07240295410156 312.0
192.07467651367188 352.0
193.07566833496094 329.0
194.0909881591797 229.0
195.0638885498047 320.0
196.07460021972656 1179.0
197.06822204589844 5495.0
198.08212280273438 1339.0
199.0847625732422 860.0
204.07981872558594 244.0
205.07339477539062 498.0
206.07945251464844 334.0
207.06777954101562 577.0
208.07264709472656 935.0
209.08602905273438 1405.0
210.09169006347656 1919.0
211.08346557617188 628.0
218.08299255371094 265.0
219.0913543701172 747.0
220.07705688476562 3923.0
221.07540893554688 10625.0
222.0864715576172 9547.0
223.09146118164062 1180.0
224.10292053222656 537.0
225.1019287109375 719.0
232.07379150390625 198.0
233.07968139648438 2028.0
234.081298828125 3258.0
235.08937072753906 49902.0
236.09744262695312 41294.0
237.10552978515625 19327.0
238.08543395996094 238.0
239.11509704589844 201.0
245.0672607421875 257.0
246.08767700195312 462.0
247.08595275878906 2347.0
248.09951782226562 2371.0
249.10186767578125 1857.0
250.11288452148438 1002.0
251.08370971679688 3318.0
252.0853729248047 555.0
258.0898742675781 418.0
259.08734130859375 1195.0
260.0980224609375 1940.0
261.1039123535156 942.0
262.0730895996094 2880.0
263.082763671875 5772.0
264.0943603515625 21253.0
265.10107421875 55212.0
267.1156005859375 413.0
273.10296630859375 429.0
274.11273193359375 271.0
275.1197204589844 4552.0
276.1028747558594 1175.0
277.0994873046875 2016.0
278.10723876953125 2492.0
279.079345703125 1125.0
280.0836486816406 510.0
287.08343505859375 240.0
288.0924987792969 1294.0
290.0705261230469 634.0
291.1135559082031 2868.0
292.0888977050781 1497.0
293.13311767578125 12259.0
301.1010437011719 324.0
303.1158447265625 2152.0
304.09149169921875 519.0
305.08831787109375 1359.0
306.10888671875 998.0
307.1139221191406 1180.0
308.0787353515625 1028.0
309.1240234375 497.0
319.1148986816406 3239.0
320.12847900390625 499.0
321.1260986328125 220781.0
335.0705261230469 573.0
336.0808410644531 5328.0
337.1158752441406 589.0
347.1116027832031 927.0
363.9850158691406 270.0
365.1184387207031 133963.0

Name: Magnocurarine
Precursor_mz: 314.1757899
Cas: 6801-40-7
Adduct: [M]+
Mz: 314.1750701
Comment: Major
Smiles: COc1cc2c(cc1O)[C@@H](Cc1ccc(O)cc1)[N+](C)(C)CC2
Formula: C19H24NO3+
Mix: Alkaloids-pos-mix46
Rt: [1.831]
Rt_apex: 1.828422029
Rt_start: 1.75185
Rt_end: 2.469633333
Ms1_intensity: 2144817
N_scnas: 161
Ms1_scan_range: [564, 582, 726]
Reci_snr: 0.000521448
Ms2_scan_idx: 700
Pmz_offset: 0.002422321
Entropy: 0.9808014035224915
Num Peaks: 133
42.03374481201172 5112.0
43.04145050048828 2008.0
44.04898452758789 357.0
46.06377029418945 214.0
51.02231979370117 173.0
55.01703643798828 291.0
56.047115325927734 527.0
57.05706787109375 232.0
58.06534194946289 261541.0
71.06977844238281 228.0
72.07775115966797 244.0
77.0379867553711 4080.0
79.05506134033203 1044.0
82.06534576416016 248.0
87.04460906982422 134.0
89.03816986083984 154.0
91.05297088623047 4061.0
93.06729125976562 1133.0
94.04051971435547 273.0
95.04754638671875 491.0
102.04689025878906 304.0
103.05448150634766 2228.0
105.07299041748047 381.0
107.04863739013672 132482.0
108.0557632446289 106.0
109.06173706054688 311.0
111.0447769165039 160.0
115.0539321899414 9856.0
116.06317138671875 276.0
117.06922149658203 2623.0
119.04841613769531 1852.0
121.06581115722656 8720.0
122.03280639648438 555.0
123.04255676269531 128.0
125.0604248046875 187.0
127.0535659790039 1898.0
128.0647735595703 221.0
129.06565856933594 367.0
130.043212890625 357.0
131.0469512939453 2878.0
132.0577850341797 683.0
133.06277465820312 913.0
135.0792999267578 123.0
136.05477905273438 275.0
137.05841064453125 9257.0
141.06982421875 298.0
143.0502166748047 9024.0
144.05401611328125 944.0
145.06471252441406 7150.0
146.0941925048828 479.0
147.0796661376953 3083.0
148.05307006835938 89.0
149.05882263183594 1958.0
150.08860778808594 505.0
151.0753631591797 4065.0
152.0618896484375 290.0
153.0707244873047 767.0
154.07940673828125 113.0
155.05819702148438 379.0
157.06201171875 390.0
160.0554656982422 2884.0
161.05836486816406 358.0
162.06797790527344 1091.0
163.07537841796875 2083.0
164.10745239257812 1703.0
165.07066345214844 2661.0
166.07647705078125 1195.0
167.08535766601562 255.0
168.05906677246094 93.0
169.06663513183594 171.0
173.08270263671875 124.0
174.0903778076172 640.0
175.07684326171875 13087.0
176.10333251953125 841.0
177.09173583984375 933.0
178.08477783203125 989.0
179.08436584472656 483.0
181.06735229492188 2141.0
182.07147216796875 1110.0
183.078369140625 1389.0
188.11019897460938 94.0
189.0660858154297 640.0
190.0785675048828 1287.0
191.08792114257812 2582.0
192.10191345214844 6771.0
193.10882568359375 2192.0
194.07339477539062 4444.0
195.08154296875 780.0
196.0844268798828 492.0
197.06033325195312 637.0
199.0748748779297 142.0
201.0677947998047 677.0
202.073974609375 419.0
203.08465576171875 174.0
205.06736755371094 142.0
206.12176513671875 229.0
207.12432861328125 477.0
208.082763671875 356.0
209.09820556640625 9683.0
210.0713653564453 704.0
211.1140594482422 3254.0
212.08575439453125 607.0
213.1027069091797 214.0
218.0726318359375 409.0
219.07888793945312 1936.0
220.08746337890625 331.0
221.09210205078125 521.0
222.0739288330078 341.0
223.07888793945312 375.0
224.08401489257812 211.0
225.09140014648438 203.0
227.06431579589844 179.0
235.07000732421875 173.0
236.0780487060547 297.0
237.0947265625 10793.0
238.1005859375 542.0
239.10641479492188 2370.0
240.08392333984375 355.0
241.08956909179688 301.0
242.0951385498047 757.0
243.10279846191406 95.0
251.1103973388672 108.0
253.12921142578125 147.0
254.0924530029297 2302.0
256.1097106933594 258.0
267.1064453125 95.0
269.119384765625 21492.0
271.1329345703125 6003.0
282.1518859863281 659.0
283.1569519042969 147.0
299.1463928222656 324.0
313.20361328125 208.0
314.1779479980469 105651.0

Name: Lepidiline C
Precursor_mz: 307.177642
Cas: 2750933-59-4
Adduct: [M]+
Mz: 307.1804898
Comment: Major
Smiles: COc1cccc(C[n+]2cn(Cc3ccccc3)c(C)c2C)c1
Formula: C20H23N2O+
Mix: Alkaloids-pos-mix46
Rt: nan
Rt_apex: 3.322820345
Rt_start: 3.259633333
Rt_end: 3.438966667
Ms1_intensity: 1953
N_scnas: 43
Ms1_scan_range: [889, 902, 933]
Reci_snr: 0.010381498
Ms2_scan_idx: 1345
Pmz_offset: 0.000758822
Entropy: 1.0
Num Peaks: 5
77.03919219970703 53.0
78.04510498046875 25.0
91.05294036865234 60.0
121.06578063964844 953.0
307.1876220703125 12.0

Name: Berberine sulfate
Precursor_mz: 336.1219331
Cas: 316-41-6
Adduct: [M]+
Mz: 336.1230345
Comment: Major
Smiles: COc1ccc2cc3[n+](cc2c1OC)CCc1cc2c(cc1-3)OCO2
Formula: C20H18NO4+
Mix: Alkaloids-pos-mix46
Rt: [2.949]
Rt_apex: 2.943462237
Rt_start: 2.906933333
Rt_end: 2.992283333
Ms1_intensity: 4326
N_scnas: 18
Ms1_scan_range: [809, 815, 828]
Reci_snr: 0.010216928
Ms2_scan_idx: 1203
Pmz_offset: 0.001151104
Entropy: 0.9642369747161865
Num Peaks: 16
248.07054138183594 51.0
250.08599853515625 73.0
263.0597229003906 51.0
275.1031494140625 119.0
277.0805358886719 51.0
278.0788879394531 669.0
290.0845642089844 64.0
291.08929443359375 41.0
292.0981750488281 884.0
293.0655517578125 41.0
304.0960693359375 362.0
306.07666015625 345.0
318.0775451660156 338.0
320.09552001953125 992.0
321.108154296875 266.0
336.1319580078125 636.0

Name: Jatrorrhizine chloride
Precursor_mz: 338.1376672
Cas: 6681-15-8
Adduct: [M]+
Mz: 338.1386845
Comment: Major
Smiles: COc1cc2c(cc1O)CC[n+]1cc3c(OC)c(OC)ccc3cc1-2
Formula: C20H20NO4+
Mix: Alkaloids-pos-mix46
Rt: [2.707]
Rt_apex: 2.69762382
Rt_start: 2.641783333
Rt_end: 2.774616667
Ms1_intensity: 2722
N_scnas: 22
Ms1_scan_range: [762, 772, 785]
Reci_snr: 0.006301712
Ms2_scan_idx: 1089
Pmz_offset: 0.000169993
Entropy: 0.9999999403953552
Num Peaks: 5
118.06417846679688 93.0
177.07464599609375 208.0
190.08599853515625 93.0
322.1070861816406 371.0
338.1390380859375 184.0

Name: 3-Methylxanthine
Precursor_mz: 167.0555726
Cas: 1076-22-8
Adduct: [M+H]+
Mz: 167.0563519
Comment: Major
Smiles: Cn1c(=O)[nH]c(=O)c2nc[nH]c21
Formula: C6H6N4O2
Mix: Alkaloids-pos-mix47
Rt: [0.912]
Rt_apex: 0.908813506
Rt_start: 0.8412
Rt_end: 1.0223
Ms1_intensity: 101671
N_scnas: 58
Ms1_scan_range: [251, 267, 310]
Reci_snr: 0.001723394
Ms2_scan_idx: 347
Pmz_offset: 0.000155346
Entropy: 0.9795007705688477
Num Peaks: 19
42.0334587097168 1982.0
53.01584243774414 77.0
54.02297592163086 62.0
55.02709197998047 327.0
67.02798461914062 77.0
69.04437255859375 747.0
81.01181030273438 111.0
82.0394287109375 94.0
94.03861236572266 351.0
96.05249786376953 583.0
97.03840637207031 62.0
108.04492950439453 147.0
109.02740478515625 189.0
121.04969024658203 199.0
123.0667724609375 152.0
124.05265045166016 1215.0
134.02047729492188 62.0
149.0494384765625 455.0
167.05723571777344 540.0

Name: 3-Methylxanthine
Precursor_mz: 167.0554541
Cas: 1076-22-8
Adduct: [M+H]+
Mz: 167.0563519
Comment: Minor
Smiles: Cn1c(=O)[nH]c(=O)c2nc[nH]c21
Formula: C6H6N4O2
Mix: Alkaloids-pos-mix47
Rt: [0.912]
Rt_apex: 0.836194739
Rt_start: 0.763216667
Rt_end: 0.8412
Ms1_intensity: 51463
N_scnas: 19
Ms1_scan_range: [231, 249, 251]
Reci_snr: 0.003353209
Ms2_scan_idx: 331
Pmz_offset: 3.68e-05
Entropy: 1.0000001192092896
Num Peaks: 15
42.033451080322266 1303.0
53.01481246948242 77.0
55.02916717529297 178.0
67.0302734375 62.0
69.04436492919922 556.0
81.00801086425781 139.0
94.0385971069336 259.0
96.0538558959961 487.0
99.02112579345703 164.0
108.04345703125 172.0
109.02299499511719 91.0
122.03365325927734 62.0
123.06208801269531 89.0
124.05107116699219 835.0
167.0535888671875 630.0

Name: Pseudotropine
Precursor_mz: 142.1211881
Cas: 135-97-7
Adduct: [M+H]+
Mz: 142.1226406
Comment: Major
Smiles: CN1[C@H]2CC[C@@H]1CC(O)C2
Formula: C8H15NO
Mix: Alkaloids-pos-mix47
Rt: [0.314]
Rt_apex: 0.311508488
Rt_start: 0.2733
Rt_end: 0.578916667
Ms1_intensity: 973460
N_scnas: 71
Ms1_scan_range: [94, 100, 166]
Reci_snr: 8.56e-05
Ms2_scan_idx: 151
Pmz_offset: 0.00185805
Entropy: 1.0000001192092896
Num Peaks: 30
41.03775405883789 3316.0
42.03260803222656 4428.0
43.019126892089844 92.0
44.04875183105469 1442.0
51.02105712890625 650.0
53.03840255737305 191.0
54.0323371887207 92.0
55.053199768066406 767.0
56.047889709472656 639.0
57.054664611816406 807.0
58.06505584716797 297.0
65.03931427001953 1038.0
67.05451202392578 6525.0
68.04759216308594 3416.0
69.06546020507812 154.0
70.06387329101562 2431.0
77.03886413574219 3432.0
79.05345916748047 1107.0
80.0460205078125 2273.0
81.05614471435547 2211.0
82.06370544433594 2497.0
83.07109069824219 1528.0
94.06324768066406 3401.0
95.08544158935547 710.0
96.08014678955078 27664.0
98.09619903564453 1332.0
108.07864379882812 374.0
109.09058380126953 224.0
124.11067199707031 7592.0
142.12295532226562 11412.0

Name: Methyl indole-3-carboxylate
Precursor_mz: 176.069709
Cas: 942-24-5
Adduct: [M+H]+
Mz: 176.070605
Comment: Major
Smiles: COC(=O)c1c[nH]c2ccccc12
Formula: C10H9NO2
Mix: Alkaloids-pos-mix47
Rt: [3.324]
Rt_apex: 3.32470068
Rt_start: 3.273933333
Rt_end: 3.682433333
Ms1_intensity: 403029
N_scnas: 78
Ms1_scan_range: [864, 872, 943]
Reci_snr: 0.00021038
Ms2_scan_idx: 1346
Pmz_offset: 0.000798111
Entropy: 0.9918799996376038
Num Peaks: 24
41.0360221862793 123.0
51.02314758300781 123.0
59.01431655883789 1154.0
63.02265548706055 4063.0
65.03716278076172 512.0
66.03120422363281 93.0
77.03652954101562 930.0
79.05233764648438 387.0
89.03792572021484 82762.0
90.04450225830078 9058.0
91.0527114868164 474.0
103.05135345458984 606.0
104.04669189453125 307.0
105.06695556640625 1222.0
115.05213165283203 412.0
116.04926300048828 71079.0
117.05677795410156 36492.0
130.06370544433594 857.0
131.06912231445312 323.0
132.08164978027344 1896.0
133.052734375 288.0
134.05662536621094 123.0
144.04525756835938 30384.0
161.04730224609375 277.0

Name: Solasodine
Precursor_mz: 414.3370138
Cas: 126-17-0
Adduct: [M+H]+
Mz: 414.3366561
Comment: Major
Smiles: C[C@H]1[C@H]2[C@H](C[C@H]3[C@@H]4CC=C5C[C@@H](O)CC[C@]5(C)C4CC[C@@]32C)O[C@]12CC[C@@H](C)CN2
Formula: C27H43NO2
Mix: Alkaloids-pos-mix47
Rt: [3.806]
Rt_apex: 3.803278754
Rt_start: 3.7624
Rt_end: 4.43815
Ms1_intensity: 4913936
N_scnas: 135
Ms1_scan_range: [969, 977, 1105]
Reci_snr: 4.91e-05
Ms2_scan_idx: 1546
Pmz_offset: 0.003114387
Entropy: 0.9850872755050659
Num Peaks: 147
41.037696838378906 1311.0
42.03255081176758 71.0
43.053131103515625 1199.0
44.047760009765625 152.0
53.03730773925781 161.0
55.053123474121094 1068.0
56.04886245727539 94.0
57.03232955932617 710.0
58.062835693359375 1073.0
65.0369644165039 119.0
67.0544204711914 3959.0
69.0688705444336 1500.0
70.06377410888672 23703.0
71.08472442626953 193.0
72.07850646972656 101.0
77.03752899169922 1293.0
79.0533447265625 4240.0
80.04842376708984 288.0
81.06866455078125 7109.0
82.06613159179688 251.0
83.08377075195312 647.0
84.08065032958984 344.0
86.09615325927734 729.0
91.05244445800781 7830.0
93.06810760498047 9039.0
94.06584167480469 249.0
95.08394622802734 5994.0
96.0786361694336 2183.0
97.06330108642578 859.0
98.09467315673828 1199.0
99.0798110961914 828.0
103.05389404296875 314.0
105.06951904296875 11293.0
107.08433532714844 13914.0
109.10069274902344 15275.0
110.0953140258789 150.0
114.0904312133789 11344.0
115.05479431152344 1016.0
116.0610122680664 228.0
117.06857299804688 3124.0
119.08450317382812 7124.0
121.10066223144531 21138.0
123.11505126953125 1630.0
124.112060546875 13016.0
125.0942611694336 407.0
126.12760162353516 21920.0
127.11139678955078 1383.0
128.06089782714844 1671.0
129.06973266601562 3991.0
130.0777130126953 581.0
131.0847930908203 11095.0
133.0992889404297 22240.0
135.1160888671875 3514.0
136.11134338378906 155.0
137.09710693359375 661.0
139.11239624023438 183.0
141.06906127929688 2002.0
142.075927734375 4407.0
144.09197998046875 700.0
145.10110473632812 16213.0
147.11631774902344 27732.0
148.11033630371094 274.0
149.09400939941406 1351.0
150.12562561035156 662.0
152.1458740234375 200.0
153.12545776367188 321.0
155.08358764648438 2649.0
156.09185791015625 328.0
157.10162353515625 68394.0
158.10760498046875 178.0
159.11679077148438 32011.0
160.1238555908203 127.0
161.13232421875 1600.0
162.12786865234375 497.0
163.1121368408203 1770.0
165.1274871826172 635.0
169.1004180908203 2687.0
170.10194396972656 136.0
171.117431640625 12664.0
172.12490844726562 117.0
173.1316375732422 5473.0
175.1112060546875 13350.0
177.1262969970703 1763.0
179.14540100097656 99.0
182.1083984375 586.0
183.11538696289062 5826.0
184.1232452392578 298.0
185.13197326660156 4698.0
186.13961791992188 295.0
187.14614868164062 1022.0
190.16270446777344 74.0
191.1431884765625 104.0
193.1604766845703 114.0
196.12664794921875 655.0
197.13221740722656 10515.0
198.1383819580078 582.0
199.14907836914062 1441.0
204.17701721191406 138.0
209.13365173339844 1047.0
211.14764404296875 10114.0
212.1562042236328 744.0
215.14280700683594 399.0
217.16062927246094 111.0
218.1938018798828 72.0
223.1469268798828 1068.0
224.154296875 2791.0
225.1639404296875 5488.0
227.17947387695312 649.0
229.15936279296875 468.0
231.17771911621094 269.0
237.15835571289062 286.0
238.1708526611328 1818.0
239.1724853515625 172.0
241.19949340820312 64.0
242.1659698486328 1026.0
243.1781463623047 196.0
249.158203125 132.0
253.19715881347656 131445.0
256.184814453125 114.0
263.1816101074219 131.0
267.2174987792969 110.0
269.1940002441406 172.0
271.2055358886719 48681.0
277.1985778808594 87.0
279.2115783691406 73.0
293.22540283203125 58.0
297.2232360839844 65.0
305.22900390625 117.0
323.24041748046875 74.0
355.2677001953125 81.0
361.3001403808594 92.0
366.2786865234375 137.0
378.322509765625 385.0
379.297607421875 500.0
380.29583740234375 572.0
396.3287658691406 158096.0
397.3044128417969 1217.0
413.060546875 1917.0
413.4000244140625 76.0
414.0194396972656 85.0
414.3393249511719 974594.0
415.39404296875 726.0
415.6228942871094 563.0
415.8689880371094 257.0
415.9806213378906 110.0
416.0922546386719 68.0
417.1348876953125 56.0

Name: 8-Oxoepiberberine
Precursor_mz: 352.1169907
Cas: 19716-60-0
Adduct: [M+H]+
Mz: 352.1179491
Comment: Major
Smiles: COc1cc2c(cc1OC)-c1cc3ccc4c(c3c(=O)n1CC2)OCO4
Formula: C20H17NO5
Mix: Alkaloids-pos-mix47
Rt: [3.862]
Rt_apex: 3.861753491
Rt_start: 3.820216667
Rt_end: 4.134783333
Ms1_intensity: 9863
N_scnas: 55
Ms1_scan_range: [980, 986, 1036]
Reci_snr: 0.011646237
Ms2_scan_idx: 1590
Pmz_offset: 0.001020874
Entropy: 0.9835177659988403
Num Peaks: 14
234.08924865722656 93.0
250.08114624023438 154.0
263.0934143066406 92.0
265.0752258300781 93.0
278.09716796875 92.0
279.0950012207031 180.0
280.0993347167969 414.0
296.1337585449219 93.0
306.0712585449219 167.0
308.0902404785156 1782.0
309.0985412597656 183.0
324.12738037109375 501.0
336.09027099609375 242.0
352.1199035644531 232.0

Name: Cycleanine
Precursor_mz: 623.3097138
Cas: 518-94-5
Adduct: [M+H]+
Mz: 623.3115635
Comment: Major
Smiles: COc1cc2c3c(c1OC)Oc1ccc(cc1)C[C@@H]1c4c(cc(OC)c(OC)c4Oc4ccc(cc4)C[C@H]3N(C)CC2)CCN1C
Formula: C38H42N2O6
Mix: Alkaloids-pos-mix47
Rt: [2.631]
Rt_apex: 2.628507753
Rt_start: 2.58315
Rt_end: 2.906783333
Ms1_intensity: 10850
N_scnas: 69
Ms1_scan_range: [730, 739, 800]
Reci_snr: 0.00534315
Ms2_scan_idx: 1047
Pmz_offset: 0.000974578
Entropy: 1.0
Num Peaks: 7
159.0976104736328 46.0
311.1595153808594 62.0
312.1579284667969 62.0
400.1971435546875 46.0
580.2784423828125 123.0
592.2731323242188 99.0
623.3255004882812 818.0

